Generated by VASPKIT code
 1.000000
   71.0296462353877871    0.0000000000000000    0.0000000000000000
    0.0000000000000000   71.0296462353877871    0.0000000000000000
    0.0000000000000000    0.0000000000000000   71.0296462353877871
   Cs   Sn   I 
  1728   864  5184
Direct
    0.1250000000000000    0.1250000000000000    0.0416666666666667    Cs001
    0.1250000000000000    0.1250000000000000    0.3750000000000000    Cs002
    0.1250000000000000    0.1250000000000000    0.7083333333333334    Cs003
    0.1250000000000000    0.4583333333333334    0.0416666666666667    Cs004
    0.1250000000000000    0.4583333333333334    0.3750000000000000    Cs005
    0.1250000000000000    0.4583333333333334    0.7083333333333334    Cs006
    0.1250000000000000    0.7916666666666667    0.0416666666666667    Cs007
    0.1250000000000000    0.7916666666666667    0.3750000000000000    Cs008
    0.1250000000000000    0.7916666666666667    0.7083333333333334    Cs009
    0.4583333333333334    0.1250000000000000    0.0416666666666667    Cs010
    0.4583333333333334    0.1250000000000000    0.3750000000000000    Cs011
    0.4583333333333334    0.1250000000000000    0.7083333333333334    Cs012
    0.4583333333333334    0.4583333333333334    0.0416666666666667    Cs013
    0.4583333333333334    0.4583333333333334    0.3750000000000000    Cs014
    0.4583333333333334    0.4583333333333334    0.7083333333333334    Cs015
    0.4583333333333334    0.7916666666666667    0.0416666666666667    Cs016
    0.4583333333333334    0.7916666666666667    0.3750000000000000    Cs017
    0.4583333333333334    0.7916666666666667    0.7083333333333334    Cs018
    0.7916666666666667    0.1250000000000000    0.0416666666666667    Cs019
    0.7916666666666667    0.1250000000000000    0.3750000000000000    Cs020
    0.7916666666666667    0.1250000000000000    0.7083333333333334    Cs021
    0.7916666666666667    0.4583333333333334    0.0416666666666667    Cs022
    0.7916666666666667    0.4583333333333334    0.3750000000000000    Cs023
    0.7916666666666667    0.4583333333333334    0.7083333333333334    Cs024
    0.7916666666666667    0.7916666666666667    0.0416666666666667    Cs025
    0.7916666666666667    0.7916666666666667    0.3750000000000000    Cs026
    0.7916666666666667    0.7916666666666667    0.7083333333333334    Cs027
    0.1250000000000000    0.1250000000000000    0.2083333333333334    Cs028
    0.1250000000000000    0.1250000000000000    0.5416666666666667    Cs029
    0.1250000000000000    0.1250000000000000    0.8750000000000000    Cs030
    0.1250000000000000    0.4583333333333334    0.2083333333333334    Cs031
    0.1250000000000000    0.4583333333333334    0.5416666666666667    Cs032
    0.1250000000000000    0.4583333333333334    0.8750000000000000    Cs033
    0.1250000000000000    0.7916666666666667    0.2083333333333334    Cs034
    0.1250000000000000    0.7916666666666667    0.5416666666666667    Cs035
    0.1250000000000000    0.7916666666666667    0.8750000000000000    Cs036
    0.4583333333333334    0.1250000000000000    0.2083333333333334    Cs037
    0.4583333333333334    0.1250000000000000    0.5416666666666667    Cs038
    0.4583333333333334    0.1250000000000000    0.8750000000000000    Cs039
    0.4583333333333334    0.4583333333333334    0.2083333333333334    Cs040
    0.4583333333333334    0.4583333333333334    0.5416666666666667    Cs041
    0.4583333333333334    0.4583333333333334    0.8750000000000000    Cs042
    0.4583333333333334    0.7916666666666667    0.2083333333333334    Cs043
    0.4583333333333334    0.7916666666666667    0.5416666666666667    Cs044
    0.4583333333333334    0.7916666666666667    0.8750000000000000    Cs045
    0.7916666666666667    0.1250000000000000    0.2083333333333334    Cs046
    0.7916666666666667    0.1250000000000000    0.5416666666666667    Cs047
    0.7916666666666667    0.1250000000000000    0.8750000000000000    Cs048
    0.7916666666666667    0.4583333333333334    0.2083333333333334    Cs049
    0.7916666666666667    0.4583333333333334    0.5416666666666667    Cs050
    0.7916666666666667    0.4583333333333334    0.8750000000000000    Cs051
    0.7916666666666667    0.7916666666666667    0.2083333333333334    Cs052
    0.7916666666666667    0.7916666666666667    0.5416666666666667    Cs053
    0.7916666666666667    0.7916666666666667    0.8750000000000000    Cs054
    0.1250000000000000    0.2916666666666667    0.0416666666666667    Cs055
    0.1250000000000000    0.2916666666666667    0.3750000000000000    Cs056
    0.1250000000000000    0.2916666666666667    0.7083333333333334    Cs057
    0.1250000000000000    0.6250000000000000    0.0416666666666667    Cs058
    0.1250000000000000    0.6250000000000000    0.3750000000000000    Cs059
    0.1250000000000000    0.6250000000000000    0.7083333333333334    Cs060
    0.1250000000000000    0.9583333333333334    0.0416666666666667    Cs061
    0.1250000000000000    0.9583333333333334    0.3750000000000000    Cs062
    0.1250000000000000    0.9583333333333334    0.7083333333333334    Cs063
    0.4583333333333334    0.2916666666666667    0.0416666666666667    Cs064
    0.4583333333333334    0.2916666666666667    0.3750000000000000    Cs065
    0.4583333333333334    0.2916666666666667    0.7083333333333334    Cs066
    0.4583333333333334    0.6250000000000000    0.0416666666666667    Cs067
    0.4583333333333334    0.6250000000000000    0.3750000000000000    Cs068
    0.4583333333333334    0.6250000000000000    0.7083333333333334    Cs069
    0.4583333333333334    0.9583333333333334    0.0416666666666667    Cs070
    0.4583333333333334    0.9583333333333334    0.3750000000000000    Cs071
    0.4583333333333334    0.9583333333333334    0.7083333333333334    Cs072
    0.7916666666666667    0.2916666666666667    0.0416666666666667    Cs073
    0.7916666666666667    0.2916666666666667    0.3750000000000000    Cs074
    0.7916666666666667    0.2916666666666667    0.7083333333333334    Cs075
    0.7916666666666667    0.6250000000000000    0.0416666666666667    Cs076
    0.7916666666666667    0.6250000000000000    0.3750000000000000    Cs077
    0.7916666666666667    0.6250000000000000    0.7083333333333334    Cs078
    0.7916666666666667    0.9583333333333334    0.0416666666666667    Cs079
    0.7916666666666667    0.9583333333333334    0.3750000000000000    Cs080
    0.7916666666666667    0.9583333333333334    0.7083333333333334    Cs081
    0.1250000000000000    0.2916666666666667    0.2083333333333334    Cs082
    0.1250000000000000    0.2916666666666667    0.5416666666666667    Cs083
    0.1250000000000000    0.2916666666666667    0.8750000000000000    Cs084
    0.1250000000000000    0.6250000000000000    0.2083333333333334    Cs085
    0.1250000000000000    0.6250000000000000    0.5416666666666667    Cs086
    0.1250000000000000    0.6250000000000000    0.8750000000000000    Cs087
    0.1250000000000000    0.9583333333333334    0.2083333333333334    Cs088
    0.1250000000000000    0.9583333333333334    0.5416666666666667    Cs089
    0.1250000000000000    0.9583333333333334    0.8750000000000000    Cs090
    0.4583333333333334    0.2916666666666667    0.2083333333333334    Cs091
    0.4583333333333334    0.2916666666666667    0.5416666666666667    Cs092
    0.4583333333333334    0.2916666666666667    0.8750000000000000    Cs093
    0.4583333333333334    0.6250000000000000    0.2083333333333334    Cs094
    0.4583333333333334    0.6250000000000000    0.5416666666666667    Cs095
    0.4583333333333334    0.6250000000000000    0.8750000000000000    Cs096
    0.4583333333333334    0.9583333333333334    0.2083333333333334    Cs097
    0.4583333333333334    0.9583333333333334    0.5416666666666667    Cs098
    0.4583333333333334    0.9583333333333334    0.8750000000000000    Cs099
    0.7916666666666667    0.2916666666666667    0.2083333333333334    Cs100
    0.7916666666666667    0.2916666666666667    0.5416666666666667    Cs101
    0.7916666666666667    0.2916666666666667    0.8750000000000000    Cs102
    0.7916666666666667    0.6250000000000000    0.2083333333333334    Cs103
    0.7916666666666667    0.6250000000000000    0.5416666666666667    Cs104
    0.7916666666666667    0.6250000000000000    0.8750000000000000    Cs105
    0.7916666666666667    0.9583333333333334    0.2083333333333334    Cs106
    0.7916666666666667    0.9583333333333334    0.5416666666666667    Cs107
    0.7916666666666667    0.9583333333333334    0.8750000000000000    Cs108
    0.2916666666666667    0.1250000000000000    0.0416666666666667    Cs109
    0.2916666666666667    0.1250000000000000    0.3750000000000000    Cs110
    0.2916666666666667    0.1250000000000000    0.7083333333333334    Cs111
    0.2916666666666667    0.4583333333333334    0.0416666666666667    Cs112
    0.2916666666666667    0.4583333333333334    0.3750000000000000    Cs113
    0.2916666666666667    0.4583333333333334    0.7083333333333334    Cs114
    0.2916666666666667    0.7916666666666667    0.0416666666666667    Cs115
    0.2916666666666667    0.7916666666666667    0.3750000000000000    Cs116
    0.2916666666666667    0.7916666666666667    0.7083333333333334    Cs117
    0.6250000000000000    0.1250000000000000    0.0416666666666667    Cs118
    0.6250000000000000    0.1250000000000000    0.3750000000000000    Cs119
    0.6250000000000000    0.1250000000000000    0.7083333333333334    Cs120
    0.6250000000000000    0.4583333333333334    0.0416666666666667    Cs121
    0.6250000000000000    0.4583333333333334    0.3750000000000000    Cs122
    0.6250000000000000    0.4583333333333334    0.7083333333333334    Cs123
    0.6250000000000000    0.7916666666666667    0.0416666666666667    Cs124
    0.6250000000000000    0.7916666666666667    0.3750000000000000    Cs125
    0.6250000000000000    0.7916666666666667    0.7083333333333334    Cs126
    0.9583333333333334    0.1250000000000000    0.0416666666666667    Cs127
    0.9583333333333334    0.1250000000000000    0.3750000000000000    Cs128
    0.9583333333333334    0.1250000000000000    0.7083333333333334    Cs129
    0.9583333333333334    0.4583333333333334    0.0416666666666667    Cs130
    0.9583333333333334    0.4583333333333334    0.3750000000000000    Cs131
    0.9583333333333334    0.4583333333333334    0.7083333333333334    Cs132
    0.9583333333333334    0.7916666666666667    0.0416666666666667    Cs133
    0.9583333333333334    0.7916666666666667    0.3750000000000000    Cs134
    0.9583333333333334    0.7916666666666667    0.7083333333333334    Cs135
    0.2916666666666667    0.1250000000000000    0.2083333333333334    Cs136
    0.2916666666666667    0.1250000000000000    0.5416666666666667    Cs137
    0.2916666666666667    0.1250000000000000    0.8750000000000000    Cs138
    0.2916666666666667    0.4583333333333334    0.2083333333333334    Cs139
    0.2916666666666667    0.4583333333333334    0.5416666666666667    Cs140
    0.2916666666666667    0.4583333333333334    0.8750000000000000    Cs141
    0.2916666666666667    0.7916666666666667    0.2083333333333334    Cs142
    0.2916666666666667    0.7916666666666667    0.5416666666666667    Cs143
    0.2916666666666667    0.7916666666666667    0.8750000000000000    Cs144
    0.6250000000000000    0.1250000000000000    0.2083333333333334    Cs145
    0.6250000000000000    0.1250000000000000    0.5416666666666667    Cs146
    0.6250000000000000    0.1250000000000000    0.8750000000000000    Cs147
    0.6250000000000000    0.4583333333333334    0.2083333333333334    Cs148
    0.6250000000000000    0.4583333333333334    0.5416666666666667    Cs149
    0.6250000000000000    0.4583333333333334    0.8750000000000000    Cs150
    0.6250000000000000    0.7916666666666667    0.2083333333333334    Cs151
    0.6250000000000000    0.7916666666666667    0.5416666666666667    Cs152
    0.6250000000000000    0.7916666666666667    0.8750000000000000    Cs153
    0.9583333333333334    0.1250000000000000    0.2083333333333334    Cs154
    0.9583333333333334    0.1250000000000000    0.5416666666666667    Cs155
    0.9583333333333334    0.1250000000000000    0.8750000000000000    Cs156
    0.9583333333333334    0.4583333333333334    0.2083333333333334    Cs157
    0.9583333333333334    0.4583333333333334    0.5416666666666667    Cs158
    0.9583333333333334    0.4583333333333334    0.8750000000000000    Cs159
    0.9583333333333334    0.7916666666666667    0.2083333333333334    Cs160
    0.9583333333333334    0.7916666666666667    0.5416666666666667    Cs161
    0.9583333333333334    0.7916666666666667    0.8750000000000000    Cs162
    0.2916666666666667    0.2916666666666667    0.0416666666666667    Cs163
    0.2916666666666667    0.2916666666666667    0.3750000000000000    Cs164
    0.2916666666666667    0.2916666666666667    0.7083333333333334    Cs165
    0.2916666666666667    0.6250000000000000    0.0416666666666667    Cs166
    0.2916666666666667    0.6250000000000000    0.3750000000000000    Cs167
    0.2916666666666667    0.6250000000000000    0.7083333333333334    Cs168
    0.2916666666666667    0.9583333333333334    0.0416666666666667    Cs169
    0.2916666666666667    0.9583333333333334    0.3750000000000000    Cs170
    0.2916666666666667    0.9583333333333334    0.7083333333333334    Cs171
    0.6250000000000000    0.2916666666666667    0.0416666666666667    Cs172
    0.6250000000000000    0.2916666666666667    0.3750000000000000    Cs173
    0.6250000000000000    0.2916666666666667    0.7083333333333334    Cs174
    0.6250000000000000    0.6250000000000000    0.0416666666666667    Cs175
    0.6250000000000000    0.6250000000000000    0.3750000000000000    Cs176
    0.6250000000000000    0.6250000000000000    0.7083333333333334    Cs177
    0.6250000000000000    0.9583333333333334    0.0416666666666667    Cs178
    0.6250000000000000    0.9583333333333334    0.3750000000000000    Cs179
    0.6250000000000000    0.9583333333333334    0.7083333333333334    Cs180
    0.9583333333333334    0.2916666666666667    0.0416666666666667    Cs181
    0.9583333333333334    0.2916666666666667    0.3750000000000000    Cs182
    0.9583333333333334    0.2916666666666667    0.7083333333333334    Cs183
    0.9583333333333334    0.6250000000000000    0.0416666666666667    Cs184
    0.9583333333333334    0.6250000000000000    0.3750000000000000    Cs185
    0.9583333333333334    0.6250000000000000    0.7083333333333334    Cs186
    0.9583333333333334    0.9583333333333334    0.0416666666666667    Cs187
    0.9583333333333334    0.9583333333333334    0.3750000000000000    Cs188
    0.9583333333333334    0.9583333333333334    0.7083333333333334    Cs189
    0.2916666666666667    0.2916666666666667    0.2083333333333334    Cs190
    0.2916666666666667    0.2916666666666667    0.5416666666666667    Cs191
    0.2916666666666667    0.2916666666666667    0.8750000000000000    Cs192
    0.2916666666666667    0.6250000000000000    0.2083333333333334    Cs193
    0.2916666666666667    0.6250000000000000    0.5416666666666667    Cs194
    0.2916666666666667    0.6250000000000000    0.8750000000000000    Cs195
    0.2916666666666667    0.9583333333333334    0.2083333333333334    Cs196
    0.2916666666666667    0.9583333333333334    0.5416666666666667    Cs197
    0.2916666666666667    0.9583333333333334    0.8750000000000000    Cs198
    0.6250000000000000    0.2916666666666667    0.2083333333333334    Cs199
    0.6250000000000000    0.2916666666666667    0.5416666666666667    Cs200
    0.6250000000000000    0.2916666666666667    0.8750000000000000    Cs201
    0.6250000000000000    0.6250000000000000    0.2083333333333334    Cs202
    0.6250000000000000    0.6250000000000000    0.5416666666666667    Cs203
    0.6250000000000000    0.6250000000000000    0.8750000000000000    Cs204
    0.6250000000000000    0.9583333333333334    0.2083333333333334    Cs205
    0.6250000000000000    0.9583333333333334    0.5416666666666667    Cs206
    0.6250000000000000    0.9583333333333334    0.8750000000000000    Cs207
    0.9583333333333334    0.2916666666666667    0.2083333333333334    Cs208
    0.9583333333333334    0.2916666666666667    0.5416666666666667    Cs209
    0.9583333333333334    0.2916666666666667    0.8750000000000000    Cs210
    0.9583333333333334    0.6250000000000000    0.2083333333333334    Cs211
    0.9583333333333334    0.6250000000000000    0.5416666666666667    Cs212
    0.9583333333333334    0.6250000000000000    0.8750000000000000    Cs213
    0.9583333333333334    0.9583333333333334    0.2083333333333334    Cs214
    0.9583333333333334    0.9583333333333334    0.5416666666666667    Cs215
    0.9583333333333334    0.9583333333333334    0.8750000000000000    Cs216
    0.1250000000000000    0.0416666666666667    0.0416666666666667    Cs217
    0.1250000000000000    0.0416666666666667    0.3750000000000000    Cs218
    0.1250000000000000    0.0416666666666667    0.7083333333333334    Cs219
    0.1250000000000000    0.3750000000000000    0.0416666666666667    Cs220
    0.1250000000000000    0.3750000000000000    0.3750000000000000    Cs221
    0.1250000000000000    0.3750000000000000    0.7083333333333334    Cs222
    0.1250000000000000    0.7083333333333334    0.0416666666666667    Cs223
    0.1250000000000000    0.7083333333333334    0.3750000000000000    Cs224
    0.1250000000000000    0.7083333333333334    0.7083333333333334    Cs225
    0.4583333333333334    0.0416666666666667    0.0416666666666667    Cs226
    0.4583333333333334    0.0416666666666667    0.3750000000000000    Cs227
    0.4583333333333334    0.0416666666666667    0.7083333333333334    Cs228
    0.4583333333333334    0.3750000000000000    0.0416666666666667    Cs229
    0.4583333333333334    0.3750000000000000    0.3750000000000000    Cs230
    0.4583333333333334    0.3750000000000000    0.7083333333333334    Cs231
    0.4583333333333334    0.7083333333333334    0.0416666666666667    Cs232
    0.4583333333333334    0.7083333333333334    0.3750000000000000    Cs233
    0.4583333333333334    0.7083333333333334    0.7083333333333334    Cs234
    0.7916666666666667    0.0416666666666667    0.0416666666666667    Cs235
    0.7916666666666667    0.0416666666666667    0.3750000000000000    Cs236
    0.7916666666666667    0.0416666666666667    0.7083333333333334    Cs237
    0.7916666666666667    0.3750000000000000    0.0416666666666667    Cs238
    0.7916666666666667    0.3750000000000000    0.3750000000000000    Cs239
    0.7916666666666667    0.3750000000000000    0.7083333333333334    Cs240
    0.7916666666666667    0.7083333333333334    0.0416666666666667    Cs241
    0.7916666666666667    0.7083333333333334    0.3750000000000000    Cs242
    0.7916666666666667    0.7083333333333334    0.7083333333333334    Cs243
    0.1250000000000000    0.0416666666666667    0.2083333333333334    Cs244
    0.1250000000000000    0.0416666666666667    0.5416666666666667    Cs245
    0.1250000000000000    0.0416666666666667    0.8750000000000000    Cs246
    0.1250000000000000    0.3750000000000000    0.2083333333333334    Cs247
    0.1250000000000000    0.3750000000000000    0.5416666666666667    Cs248
    0.1250000000000000    0.3750000000000000    0.8750000000000000    Cs249
    0.1250000000000000    0.7083333333333334    0.2083333333333334    Cs250
    0.1250000000000000    0.7083333333333334    0.5416666666666667    Cs251
    0.1250000000000000    0.7083333333333334    0.8750000000000000    Cs252
    0.4583333333333334    0.0416666666666667    0.2083333333333334    Cs253
    0.4583333333333334    0.0416666666666667    0.5416666666666667    Cs254
    0.4583333333333334    0.0416666666666667    0.8750000000000000    Cs255
    0.4583333333333334    0.3750000000000000    0.2083333333333334    Cs256
    0.4583333333333334    0.3750000000000000    0.5416666666666667    Cs257
    0.4583333333333334    0.3750000000000000    0.8750000000000000    Cs258
    0.4583333333333334    0.7083333333333334    0.2083333333333334    Cs259
    0.4583333333333334    0.7083333333333334    0.5416666666666667    Cs260
    0.4583333333333334    0.7083333333333334    0.8750000000000000    Cs261
    0.7916666666666667    0.0416666666666667    0.2083333333333334    Cs262
    0.7916666666666667    0.0416666666666667    0.5416666666666667    Cs263
    0.7916666666666667    0.0416666666666667    0.8750000000000000    Cs264
    0.7916666666666667    0.3750000000000000    0.2083333333333334    Cs265
    0.7916666666666667    0.3750000000000000    0.5416666666666667    Cs266
    0.7916666666666667    0.3750000000000000    0.8750000000000000    Cs267
    0.7916666666666667    0.7083333333333334    0.2083333333333334    Cs268
    0.7916666666666667    0.7083333333333334    0.5416666666666667    Cs269
    0.7916666666666667    0.7083333333333334    0.8750000000000000    Cs270
    0.1250000000000000    0.2083333333333334    0.0416666666666667    Cs271
    0.1250000000000000    0.2083333333333334    0.3750000000000000    Cs272
    0.1250000000000000    0.2083333333333334    0.7083333333333334    Cs273
    0.1250000000000000    0.5416666666666667    0.0416666666666667    Cs274
    0.1250000000000000    0.5416666666666667    0.3750000000000000    Cs275
    0.1250000000000000    0.5416666666666667    0.7083333333333334    Cs276
    0.1250000000000000    0.8750000000000000    0.0416666666666667    Cs277
    0.1250000000000000    0.8750000000000000    0.3750000000000000    Cs278
    0.1250000000000000    0.8750000000000000    0.7083333333333334    Cs279
    0.4583333333333334    0.2083333333333334    0.0416666666666667    Cs280
    0.4583333333333334    0.2083333333333334    0.3750000000000000    Cs281
    0.4583333333333334    0.2083333333333334    0.7083333333333334    Cs282
    0.4583333333333334    0.5416666666666667    0.0416666666666667    Cs283
    0.4583333333333334    0.5416666666666667    0.3750000000000000    Cs284
    0.4583333333333334    0.5416666666666667    0.7083333333333334    Cs285
    0.4583333333333334    0.8750000000000000    0.0416666666666667    Cs286
    0.4583333333333334    0.8750000000000000    0.3750000000000000    Cs287
    0.4583333333333334    0.8750000000000000    0.7083333333333334    Cs288
    0.7916666666666667    0.2083333333333334    0.0416666666666667    Cs289
    0.7916666666666667    0.2083333333333334    0.3750000000000000    Cs290
    0.7916666666666667    0.2083333333333334    0.7083333333333334    Cs291
    0.7916666666666667    0.5416666666666667    0.0416666666666667    Cs292
    0.7916666666666667    0.5416666666666667    0.3750000000000000    Cs293
    0.7916666666666667    0.5416666666666667    0.7083333333333334    Cs294
    0.7916666666666667    0.8750000000000000    0.0416666666666667    Cs295
    0.7916666666666667    0.8750000000000000    0.3750000000000000    Cs296
    0.7916666666666667    0.8750000000000000    0.7083333333333334    Cs297
    0.1250000000000000    0.2083333333333334    0.2083333333333334    Cs298
    0.1250000000000000    0.2083333333333334    0.5416666666666667    Cs299
    0.1250000000000000    0.2083333333333334    0.8750000000000000    Cs300
    0.1250000000000000    0.5416666666666667    0.2083333333333334    Cs301
    0.1250000000000000    0.5416666666666667    0.5416666666666667    Cs302
    0.1250000000000000    0.5416666666666667    0.8750000000000000    Cs303
    0.1250000000000000    0.8750000000000000    0.2083333333333334    Cs304
    0.1250000000000000    0.8750000000000000    0.5416666666666667    Cs305
    0.1250000000000000    0.8750000000000000    0.8750000000000000    Cs306
    0.4583333333333334    0.2083333333333334    0.2083333333333334    Cs307
    0.4583333333333334    0.2083333333333334    0.5416666666666667    Cs308
    0.4583333333333334    0.2083333333333334    0.8750000000000000    Cs309
    0.4583333333333334    0.5416666666666667    0.2083333333333334    Cs310
    0.4583333333333334    0.5416666666666667    0.5416666666666667    Cs311
    0.4583333333333334    0.5416666666666667    0.8750000000000000    Cs312
    0.4583333333333334    0.8750000000000000    0.2083333333333334    Cs313
    0.4583333333333334    0.8750000000000000    0.5416666666666667    Cs314
    0.4583333333333334    0.8750000000000000    0.8750000000000000    Cs315
    0.7916666666666667    0.2083333333333334    0.2083333333333334    Cs316
    0.7916666666666667    0.2083333333333334    0.5416666666666667    Cs317
    0.7916666666666667    0.2083333333333334    0.8750000000000000    Cs318
    0.7916666666666667    0.5416666666666667    0.2083333333333334    Cs319
    0.7916666666666667    0.5416666666666667    0.5416666666666667    Cs320
    0.7916666666666667    0.5416666666666667    0.8750000000000000    Cs321
    0.7916666666666667    0.8750000000000000    0.2083333333333334    Cs322
    0.7916666666666667    0.8750000000000000    0.5416666666666667    Cs323
    0.7916666666666667    0.8750000000000000    0.8750000000000000    Cs324
    0.2916666666666667    0.0416666666666667    0.0416666666666667    Cs325
    0.2916666666666667    0.0416666666666667    0.3750000000000000    Cs326
    0.2916666666666667    0.0416666666666667    0.7083333333333334    Cs327
    0.2916666666666667    0.3750000000000000    0.0416666666666667    Cs328
    0.2916666666666667    0.3750000000000000    0.3750000000000000    Cs329
    0.2916666666666667    0.3750000000000000    0.7083333333333334    Cs330
    0.2916666666666667    0.7083333333333334    0.0416666666666667    Cs331
    0.2916666666666667    0.7083333333333334    0.3750000000000000    Cs332
    0.2916666666666667    0.7083333333333334    0.7083333333333334    Cs333
    0.6250000000000000    0.0416666666666667    0.0416666666666667    Cs334
    0.6250000000000000    0.0416666666666667    0.3750000000000000    Cs335
    0.6250000000000000    0.0416666666666667    0.7083333333333334    Cs336
    0.6250000000000000    0.3750000000000000    0.0416666666666667    Cs337
    0.6250000000000000    0.3750000000000000    0.3750000000000000    Cs338
    0.6250000000000000    0.3750000000000000    0.7083333333333334    Cs339
    0.6250000000000000    0.7083333333333334    0.0416666666666667    Cs340
    0.6250000000000000    0.7083333333333334    0.3750000000000000    Cs341
    0.6250000000000000    0.7083333333333334    0.7083333333333334    Cs342
    0.9583333333333334    0.0416666666666667    0.0416666666666667    Cs343
    0.9583333333333334    0.0416666666666667    0.3750000000000000    Cs344
    0.9583333333333334    0.0416666666666667    0.7083333333333334    Cs345
    0.9583333333333334    0.3750000000000000    0.0416666666666667    Cs346
    0.9583333333333334    0.3750000000000000    0.3750000000000000    Cs347
    0.9583333333333334    0.3750000000000000    0.7083333333333334    Cs348
    0.9583333333333334    0.7083333333333334    0.0416666666666667    Cs349
    0.9583333333333334    0.7083333333333334    0.3750000000000000    Cs350
    0.9583333333333334    0.7083333333333334    0.7083333333333334    Cs351
    0.2916666666666667    0.0416666666666667    0.2083333333333334    Cs352
    0.2916666666666667    0.0416666666666667    0.5416666666666667    Cs353
    0.2916666666666667    0.0416666666666667    0.8750000000000000    Cs354
    0.2916666666666667    0.3750000000000000    0.2083333333333334    Cs355
    0.2916666666666667    0.3750000000000000    0.5416666666666667    Cs356
    0.2916666666666667    0.3750000000000000    0.8750000000000000    Cs357
    0.2916666666666667    0.7083333333333334    0.2083333333333334    Cs358
    0.2916666666666667    0.7083333333333334    0.5416666666666667    Cs359
    0.2916666666666667    0.7083333333333334    0.8750000000000000    Cs360
    0.6250000000000000    0.0416666666666667    0.2083333333333334    Cs361
    0.6250000000000000    0.0416666666666667    0.5416666666666667    Cs362
    0.6250000000000000    0.0416666666666667    0.8750000000000000    Cs363
    0.6250000000000000    0.3750000000000000    0.2083333333333334    Cs364
    0.6250000000000000    0.3750000000000000    0.5416666666666667    Cs365
    0.6250000000000000    0.3750000000000000    0.8750000000000000    Cs366
    0.6250000000000000    0.7083333333333334    0.2083333333333334    Cs367
    0.6250000000000000    0.7083333333333334    0.5416666666666667    Cs368
    0.6250000000000000    0.7083333333333334    0.8750000000000000    Cs369
    0.9583333333333334    0.0416666666666667    0.2083333333333334    Cs370
    0.9583333333333334    0.0416666666666667    0.5416666666666667    Cs371
    0.9583333333333334    0.0416666666666667    0.8750000000000000    Cs372
    0.9583333333333334    0.3750000000000000    0.2083333333333334    Cs373
    0.9583333333333334    0.3750000000000000    0.5416666666666667    Cs374
    0.9583333333333334    0.3750000000000000    0.8750000000000000    Cs375
    0.9583333333333334    0.7083333333333334    0.2083333333333334    Cs376
    0.9583333333333334    0.7083333333333334    0.5416666666666667    Cs377
    0.9583333333333334    0.7083333333333334    0.8750000000000000    Cs378
    0.2916666666666667    0.2083333333333334    0.0416666666666667    Cs379
    0.2916666666666667    0.2083333333333334    0.3750000000000000    Cs380
    0.2916666666666667    0.2083333333333334    0.7083333333333334    Cs381
    0.2916666666666667    0.5416666666666667    0.0416666666666667    Cs382
    0.2916666666666667    0.5416666666666667    0.3750000000000000    Cs383
    0.2916666666666667    0.5416666666666667    0.7083333333333334    Cs384
    0.2916666666666667    0.8750000000000000    0.0416666666666667    Cs385
    0.2916666666666667    0.8750000000000000    0.3750000000000000    Cs386
    0.2916666666666667    0.8750000000000000    0.7083333333333334    Cs387
    0.6250000000000000    0.2083333333333334    0.0416666666666667    Cs388
    0.6250000000000000    0.2083333333333334    0.3750000000000000    Cs389
    0.6250000000000000    0.2083333333333334    0.7083333333333334    Cs390
    0.6250000000000000    0.5416666666666667    0.0416666666666667    Cs391
    0.6250000000000000    0.5416666666666667    0.3750000000000000    Cs392
    0.6250000000000000    0.5416666666666667    0.7083333333333334    Cs393
    0.6250000000000000    0.8750000000000000    0.0416666666666667    Cs394
    0.6250000000000000    0.8750000000000000    0.3750000000000000    Cs395
    0.6250000000000000    0.8750000000000000    0.7083333333333334    Cs396
    0.9583333333333334    0.2083333333333334    0.0416666666666667    Cs397
    0.9583333333333334    0.2083333333333334    0.3750000000000000    Cs398
    0.9583333333333334    0.2083333333333334    0.7083333333333334    Cs399
    0.9583333333333334    0.5416666666666667    0.0416666666666667    Cs400
    0.9583333333333334    0.5416666666666667    0.3750000000000000    Cs401
    0.9583333333333334    0.5416666666666667    0.7083333333333334    Cs402
    0.9583333333333334    0.8750000000000000    0.0416666666666667    Cs403
    0.9583333333333334    0.8750000000000000    0.3750000000000000    Cs404
    0.9583333333333334    0.8750000000000000    0.7083333333333334    Cs405
    0.2916666666666667    0.2083333333333334    0.2083333333333334    Cs406
    0.2916666666666667    0.2083333333333334    0.5416666666666667    Cs407
    0.2916666666666667    0.2083333333333334    0.8750000000000000    Cs408
    0.2916666666666667    0.5416666666666667    0.2083333333333334    Cs409
    0.2916666666666667    0.5416666666666667    0.5416666666666667    Cs410
    0.2916666666666667    0.5416666666666667    0.8750000000000000    Cs411
    0.2916666666666667    0.8750000000000000    0.2083333333333334    Cs412
    0.2916666666666667    0.8750000000000000    0.5416666666666667    Cs413
    0.2916666666666667    0.8750000000000000    0.8750000000000000    Cs414
    0.6250000000000000    0.2083333333333334    0.2083333333333334    Cs415
    0.6250000000000000    0.2083333333333334    0.5416666666666667    Cs416
    0.6250000000000000    0.2083333333333334    0.8750000000000000    Cs417
    0.6250000000000000    0.5416666666666667    0.2083333333333334    Cs418
    0.6250000000000000    0.5416666666666667    0.5416666666666667    Cs419
    0.6250000000000000    0.5416666666666667    0.8750000000000000    Cs420
    0.6250000000000000    0.8750000000000000    0.2083333333333334    Cs421
    0.6250000000000000    0.8750000000000000    0.5416666666666667    Cs422
    0.6250000000000000    0.8750000000000000    0.8750000000000000    Cs423
    0.9583333333333334    0.2083333333333334    0.2083333333333334    Cs424
    0.9583333333333334    0.2083333333333334    0.5416666666666667    Cs425
    0.9583333333333334    0.2083333333333334    0.8750000000000000    Cs426
    0.9583333333333334    0.5416666666666667    0.2083333333333334    Cs427
    0.9583333333333334    0.5416666666666667    0.5416666666666667    Cs428
    0.9583333333333334    0.5416666666666667    0.8750000000000000    Cs429
    0.9583333333333334    0.8750000000000000    0.2083333333333334    Cs430
    0.9583333333333334    0.8750000000000000    0.5416666666666667    Cs431
    0.9583333333333334    0.8750000000000000    0.8750000000000000    Cs432
    0.1250000000000000    0.0416666666666667    0.1250000000000000    Cs433
    0.1250000000000000    0.0416666666666667    0.4583333333333334    Cs434
    0.1250000000000000    0.0416666666666667    0.7916666666666667    Cs435
    0.1250000000000000    0.3750000000000000    0.1250000000000000    Cs436
    0.1250000000000000    0.3750000000000000    0.4583333333333334    Cs437
    0.1250000000000000    0.3750000000000000    0.7916666666666667    Cs438
    0.1250000000000000    0.7083333333333334    0.1250000000000000    Cs439
    0.1250000000000000    0.7083333333333334    0.4583333333333334    Cs440
    0.1250000000000000    0.7083333333333334    0.7916666666666667    Cs441
    0.4583333333333334    0.0416666666666667    0.1250000000000000    Cs442
    0.4583333333333334    0.0416666666666667    0.4583333333333334    Cs443
    0.4583333333333334    0.0416666666666667    0.7916666666666667    Cs444
    0.4583333333333334    0.3750000000000000    0.1250000000000000    Cs445
    0.4583333333333334    0.3750000000000000    0.4583333333333334    Cs446
    0.4583333333333334    0.3750000000000000    0.7916666666666667    Cs447
    0.4583333333333334    0.7083333333333334    0.1250000000000000    Cs448
    0.4583333333333334    0.7083333333333334    0.4583333333333334    Cs449
    0.4583333333333334    0.7083333333333334    0.7916666666666667    Cs450
    0.7916666666666667    0.0416666666666667    0.1250000000000000    Cs451
    0.7916666666666667    0.0416666666666667    0.4583333333333334    Cs452
    0.7916666666666667    0.0416666666666667    0.7916666666666667    Cs453
    0.7916666666666667    0.3750000000000000    0.1250000000000000    Cs454
    0.7916666666666667    0.3750000000000000    0.4583333333333334    Cs455
    0.7916666666666667    0.3750000000000000    0.7916666666666667    Cs456
    0.7916666666666667    0.7083333333333334    0.1250000000000000    Cs457
    0.7916666666666667    0.7083333333333334    0.4583333333333334    Cs458
    0.7916666666666667    0.7083333333333334    0.7916666666666667    Cs459
    0.1250000000000000    0.0416666666666667    0.2916666666666667    Cs460
    0.1250000000000000    0.0416666666666667    0.6250000000000000    Cs461
    0.1250000000000000    0.0416666666666667    0.9583333333333334    Cs462
    0.1250000000000000    0.3750000000000000    0.2916666666666667    Cs463
    0.1250000000000000    0.3750000000000000    0.6250000000000000    Cs464
    0.1250000000000000    0.3750000000000000    0.9583333333333334    Cs465
    0.1250000000000000    0.7083333333333334    0.2916666666666667    Cs466
    0.1250000000000000    0.7083333333333334    0.6250000000000000    Cs467
    0.1250000000000000    0.7083333333333334    0.9583333333333334    Cs468
    0.4583333333333334    0.0416666666666667    0.2916666666666667    Cs469
    0.4583333333333334    0.0416666666666667    0.6250000000000000    Cs470
    0.4583333333333334    0.0416666666666667    0.9583333333333334    Cs471
    0.4583333333333334    0.3750000000000000    0.2916666666666667    Cs472
    0.4583333333333334    0.3750000000000000    0.6250000000000000    Cs473
    0.4583333333333334    0.3750000000000000    0.9583333333333334    Cs474
    0.4583333333333334    0.7083333333333334    0.2916666666666667    Cs475
    0.4583333333333334    0.7083333333333334    0.6250000000000000    Cs476
    0.4583333333333334    0.7083333333333334    0.9583333333333334    Cs477
    0.7916666666666667    0.0416666666666667    0.2916666666666667    Cs478
    0.7916666666666667    0.0416666666666667    0.6250000000000000    Cs479
    0.7916666666666667    0.0416666666666667    0.9583333333333334    Cs480
    0.7916666666666667    0.3750000000000000    0.2916666666666667    Cs481
    0.7916666666666667    0.3750000000000000    0.6250000000000000    Cs482
    0.7916666666666667    0.3750000000000000    0.9583333333333334    Cs483
    0.7916666666666667    0.7083333333333334    0.2916666666666667    Cs484
    0.7916666666666667    0.7083333333333334    0.6250000000000000    Cs485
    0.7916666666666667    0.7083333333333334    0.9583333333333334    Cs486
    0.1250000000000000    0.2083333333333334    0.1250000000000000    Cs487
    0.1250000000000000    0.2083333333333334    0.4583333333333334    Cs488
    0.1250000000000000    0.2083333333333334    0.7916666666666667    Cs489
    0.1250000000000000    0.5416666666666667    0.1250000000000000    Cs490
    0.1250000000000000    0.5416666666666667    0.4583333333333334    Cs491
    0.1250000000000000    0.5416666666666667    0.7916666666666667    Cs492
    0.1250000000000000    0.8750000000000000    0.1250000000000000    Cs493
    0.1250000000000000    0.8750000000000000    0.4583333333333334    Cs494
    0.1250000000000000    0.8750000000000000    0.7916666666666667    Cs495
    0.4583333333333334    0.2083333333333334    0.1250000000000000    Cs496
    0.4583333333333334    0.2083333333333334    0.4583333333333334    Cs497
    0.4583333333333334    0.2083333333333334    0.7916666666666667    Cs498
    0.4583333333333334    0.5416666666666667    0.1250000000000000    Cs499
    0.4583333333333334    0.5416666666666667    0.4583333333333334    Cs500
    0.4583333333333334    0.5416666666666667    0.7916666666666667    Cs501
    0.4583333333333334    0.8750000000000000    0.1250000000000000    Cs502
    0.4583333333333334    0.8750000000000000    0.4583333333333334    Cs503
    0.4583333333333334    0.8750000000000000    0.7916666666666667    Cs504
    0.7916666666666667    0.2083333333333334    0.1250000000000000    Cs505
    0.7916666666666667    0.2083333333333334    0.4583333333333334    Cs506
    0.7916666666666667    0.2083333333333334    0.7916666666666667    Cs507
    0.7916666666666667    0.5416666666666667    0.1250000000000000    Cs508
    0.7916666666666667    0.5416666666666667    0.4583333333333334    Cs509
    0.7916666666666667    0.5416666666666667    0.7916666666666667    Cs510
    0.7916666666666667    0.8750000000000000    0.1250000000000000    Cs511
    0.7916666666666667    0.8750000000000000    0.4583333333333334    Cs512
    0.7916666666666667    0.8750000000000000    0.7916666666666667    Cs513
    0.1250000000000000    0.2083333333333334    0.2916666666666667    Cs514
    0.1250000000000000    0.2083333333333334    0.6250000000000000    Cs515
    0.1250000000000000    0.2083333333333334    0.9583333333333334    Cs516
    0.1250000000000000    0.5416666666666667    0.2916666666666667    Cs517
    0.1250000000000000    0.5416666666666667    0.6250000000000000    Cs518
    0.1250000000000000    0.5416666666666667    0.9583333333333334    Cs519
    0.1250000000000000    0.8750000000000000    0.2916666666666667    Cs520
    0.1250000000000000    0.8750000000000000    0.6250000000000000    Cs521
    0.1250000000000000    0.8750000000000000    0.9583333333333334    Cs522
    0.4583333333333334    0.2083333333333334    0.2916666666666667    Cs523
    0.4583333333333334    0.2083333333333334    0.6250000000000000    Cs524
    0.4583333333333334    0.2083333333333334    0.9583333333333334    Cs525
    0.4583333333333334    0.5416666666666667    0.2916666666666667    Cs526
    0.4583333333333334    0.5416666666666667    0.6250000000000000    Cs527
    0.4583333333333334    0.5416666666666667    0.9583333333333334    Cs528
    0.4583333333333334    0.8750000000000000    0.2916666666666667    Cs529
    0.4583333333333334    0.8750000000000000    0.6250000000000000    Cs530
    0.4583333333333334    0.8750000000000000    0.9583333333333334    Cs531
    0.7916666666666667    0.2083333333333334    0.2916666666666667    Cs532
    0.7916666666666667    0.2083333333333334    0.6250000000000000    Cs533
    0.7916666666666667    0.2083333333333334    0.9583333333333334    Cs534
    0.7916666666666667    0.5416666666666667    0.2916666666666667    Cs535
    0.7916666666666667    0.5416666666666667    0.6250000000000000    Cs536
    0.7916666666666667    0.5416666666666667    0.9583333333333334    Cs537
    0.7916666666666667    0.8750000000000000    0.2916666666666667    Cs538
    0.7916666666666667    0.8750000000000000    0.6250000000000000    Cs539
    0.7916666666666667    0.8750000000000000    0.9583333333333334    Cs540
    0.2916666666666667    0.0416666666666667    0.1250000000000000    Cs541
    0.2916666666666667    0.0416666666666667    0.4583333333333334    Cs542
    0.2916666666666667    0.0416666666666667    0.7916666666666667    Cs543
    0.2916666666666667    0.3750000000000000    0.1250000000000000    Cs544
    0.2916666666666667    0.3750000000000000    0.4583333333333334    Cs545
    0.2916666666666667    0.3750000000000000    0.7916666666666667    Cs546
    0.2916666666666667    0.7083333333333334    0.1250000000000000    Cs547
    0.2916666666666667    0.7083333333333334    0.4583333333333334    Cs548
    0.2916666666666667    0.7083333333333334    0.7916666666666667    Cs549
    0.6250000000000000    0.0416666666666667    0.1250000000000000    Cs550
    0.6250000000000000    0.0416666666666667    0.4583333333333334    Cs551
    0.6250000000000000    0.0416666666666667    0.7916666666666667    Cs552
    0.6250000000000000    0.3750000000000000    0.1250000000000000    Cs553
    0.6250000000000000    0.3750000000000000    0.4583333333333334    Cs554
    0.6250000000000000    0.3750000000000000    0.7916666666666667    Cs555
    0.6250000000000000    0.7083333333333334    0.1250000000000000    Cs556
    0.6250000000000000    0.7083333333333334    0.4583333333333334    Cs557
    0.6250000000000000    0.7083333333333334    0.7916666666666667    Cs558
    0.9583333333333334    0.0416666666666667    0.1250000000000000    Cs559
    0.9583333333333334    0.0416666666666667    0.4583333333333334    Cs560
    0.9583333333333334    0.0416666666666667    0.7916666666666667    Cs561
    0.9583333333333334    0.3750000000000000    0.1250000000000000    Cs562
    0.9583333333333334    0.3750000000000000    0.4583333333333334    Cs563
    0.9583333333333334    0.3750000000000000    0.7916666666666667    Cs564
    0.9583333333333334    0.7083333333333334    0.1250000000000000    Cs565
    0.9583333333333334    0.7083333333333334    0.4583333333333334    Cs566
    0.9583333333333334    0.7083333333333334    0.7916666666666667    Cs567
    0.2916666666666667    0.0416666666666667    0.2916666666666667    Cs568
    0.2916666666666667    0.0416666666666667    0.6250000000000000    Cs569
    0.2916666666666667    0.0416666666666667    0.9583333333333334    Cs570
    0.2916666666666667    0.3750000000000000    0.2916666666666667    Cs571
    0.2916666666666667    0.3750000000000000    0.6250000000000000    Cs572
    0.2916666666666667    0.3750000000000000    0.9583333333333334    Cs573
    0.2916666666666667    0.7083333333333334    0.2916666666666667    Cs574
    0.2916666666666667    0.7083333333333334    0.6250000000000000    Cs575
    0.2916666666666667    0.7083333333333334    0.9583333333333334    Cs576
    0.6250000000000000    0.0416666666666667    0.2916666666666667    Cs577
    0.6250000000000000    0.0416666666666667    0.6250000000000000    Cs578
    0.6250000000000000    0.0416666666666667    0.9583333333333334    Cs579
    0.6250000000000000    0.3750000000000000    0.2916666666666667    Cs580
    0.6250000000000000    0.3750000000000000    0.6250000000000000    Cs581
    0.6250000000000000    0.3750000000000000    0.9583333333333334    Cs582
    0.6250000000000000    0.7083333333333334    0.2916666666666667    Cs583
    0.6250000000000000    0.7083333333333334    0.6250000000000000    Cs584
    0.6250000000000000    0.7083333333333334    0.9583333333333334    Cs585
    0.9583333333333334    0.0416666666666667    0.2916666666666667    Cs586
    0.9583333333333334    0.0416666666666667    0.6250000000000000    Cs587
    0.9583333333333334    0.0416666666666667    0.9583333333333334    Cs588
    0.9583333333333334    0.3750000000000000    0.2916666666666667    Cs589
    0.9583333333333334    0.3750000000000000    0.6250000000000000    Cs590
    0.9583333333333334    0.3750000000000000    0.9583333333333334    Cs591
    0.9583333333333334    0.7083333333333334    0.2916666666666667    Cs592
    0.9583333333333334    0.7083333333333334    0.6250000000000000    Cs593
    0.9583333333333334    0.7083333333333334    0.9583333333333334    Cs594
    0.2916666666666667    0.2083333333333334    0.1250000000000000    Cs595
    0.2916666666666667    0.2083333333333334    0.4583333333333334    Cs596
    0.2916666666666667    0.2083333333333334    0.7916666666666667    Cs597
    0.2916666666666667    0.5416666666666667    0.1250000000000000    Cs598
    0.2916666666666667    0.5416666666666667    0.4583333333333334    Cs599
    0.2916666666666667    0.5416666666666667    0.7916666666666667    Cs600
    0.2916666666666667    0.8750000000000000    0.1250000000000000    Cs601
    0.2916666666666667    0.8750000000000000    0.4583333333333334    Cs602
    0.2916666666666667    0.8750000000000000    0.7916666666666667    Cs603
    0.6250000000000000    0.2083333333333334    0.1250000000000000    Cs604
    0.6250000000000000    0.2083333333333334    0.4583333333333334    Cs605
    0.6250000000000000    0.2083333333333334    0.7916666666666667    Cs606
    0.6250000000000000    0.5416666666666667    0.1250000000000000    Cs607
    0.6250000000000000    0.5416666666666667    0.4583333333333334    Cs608
    0.6250000000000000    0.5416666666666667    0.7916666666666667    Cs609
    0.6250000000000000    0.8750000000000000    0.1250000000000000    Cs610
    0.6250000000000000    0.8750000000000000    0.4583333333333334    Cs611
    0.6250000000000000    0.8750000000000000    0.7916666666666667    Cs612
    0.9583333333333334    0.2083333333333334    0.1250000000000000    Cs613
    0.9583333333333334    0.2083333333333334    0.4583333333333334    Cs614
    0.9583333333333334    0.2083333333333334    0.7916666666666667    Cs615
    0.9583333333333334    0.5416666666666667    0.1250000000000000    Cs616
    0.9583333333333334    0.5416666666666667    0.4583333333333334    Cs617
    0.9583333333333334    0.5416666666666667    0.7916666666666667    Cs618
    0.9583333333333334    0.8750000000000000    0.1250000000000000    Cs619
    0.9583333333333334    0.8750000000000000    0.4583333333333334    Cs620
    0.9583333333333334    0.8750000000000000    0.7916666666666667    Cs621
    0.2916666666666667    0.2083333333333334    0.2916666666666667    Cs622
    0.2916666666666667    0.2083333333333334    0.6250000000000000    Cs623
    0.2916666666666667    0.2083333333333334    0.9583333333333334    Cs624
    0.2916666666666667    0.5416666666666667    0.2916666666666667    Cs625
    0.2916666666666667    0.5416666666666667    0.6250000000000000    Cs626
    0.2916666666666667    0.5416666666666667    0.9583333333333334    Cs627
    0.2916666666666667    0.8750000000000000    0.2916666666666667    Cs628
    0.2916666666666667    0.8750000000000000    0.6250000000000000    Cs629
    0.2916666666666667    0.8750000000000000    0.9583333333333334    Cs630
    0.6250000000000000    0.2083333333333334    0.2916666666666667    Cs631
    0.6250000000000000    0.2083333333333334    0.6250000000000000    Cs632
    0.6250000000000000    0.2083333333333334    0.9583333333333334    Cs633
    0.6250000000000000    0.5416666666666667    0.2916666666666667    Cs634
    0.6250000000000000    0.5416666666666667    0.6250000000000000    Cs635
    0.6250000000000000    0.5416666666666667    0.9583333333333334    Cs636
    0.6250000000000000    0.8750000000000000    0.2916666666666667    Cs637
    0.6250000000000000    0.8750000000000000    0.6250000000000000    Cs638
    0.6250000000000000    0.8750000000000000    0.9583333333333334    Cs639
    0.9583333333333334    0.2083333333333334    0.2916666666666667    Cs640
    0.9583333333333334    0.2083333333333334    0.6250000000000000    Cs641
    0.9583333333333334    0.2083333333333334    0.9583333333333334    Cs642
    0.9583333333333334    0.5416666666666667    0.2916666666666667    Cs643
    0.9583333333333334    0.5416666666666667    0.6250000000000000    Cs644
    0.9583333333333334    0.5416666666666667    0.9583333333333334    Cs645
    0.9583333333333334    0.8750000000000000    0.2916666666666667    Cs646
    0.9583333333333334    0.8750000000000000    0.6250000000000000    Cs647
    0.9583333333333334    0.8750000000000000    0.9583333333333334    Cs648
    0.1250000000000000    0.1250000000000000    0.1250000000000000    Cs649
    0.1250000000000000    0.1250000000000000    0.4583333333333334    Cs650
    0.1250000000000000    0.1250000000000000    0.7916666666666667    Cs651
    0.1250000000000000    0.4583333333333334    0.1250000000000000    Cs652
    0.1250000000000000    0.4583333333333334    0.4583333333333334    Cs653
    0.1250000000000000    0.4583333333333334    0.7916666666666667    Cs654
    0.1250000000000000    0.7916666666666667    0.1250000000000000    Cs655
    0.1250000000000000    0.7916666666666667    0.4583333333333334    Cs656
    0.1250000000000000    0.7916666666666667    0.7916666666666667    Cs657
    0.4583333333333334    0.1250000000000000    0.1250000000000000    Cs658
    0.4583333333333334    0.1250000000000000    0.4583333333333334    Cs659
    0.4583333333333334    0.1250000000000000    0.7916666666666667    Cs660
    0.4583333333333334    0.4583333333333334    0.1250000000000000    Cs661
    0.4583333333333334    0.4583333333333334    0.4583333333333334    Cs662
    0.4583333333333334    0.4583333333333334    0.7916666666666667    Cs663
    0.4583333333333334    0.7916666666666667    0.1250000000000000    Cs664
    0.4583333333333334    0.7916666666666667    0.4583333333333334    Cs665
    0.4583333333333334    0.7916666666666667    0.7916666666666667    Cs666
    0.7916666666666667    0.1250000000000000    0.1250000000000000    Cs667
    0.7916666666666667    0.1250000000000000    0.4583333333333334    Cs668
    0.7916666666666667    0.1250000000000000    0.7916666666666667    Cs669
    0.7916666666666667    0.4583333333333334    0.1250000000000000    Cs670
    0.7916666666666667    0.4583333333333334    0.4583333333333334    Cs671
    0.7916666666666667    0.4583333333333334    0.7916666666666667    Cs672
    0.7916666666666667    0.7916666666666667    0.1250000000000000    Cs673
    0.7916666666666667    0.7916666666666667    0.4583333333333334    Cs674
    0.7916666666666667    0.7916666666666667    0.7916666666666667    Cs675
    0.1250000000000000    0.1250000000000000    0.2916666666666667    Cs676
    0.1250000000000000    0.1250000000000000    0.6250000000000000    Cs677
    0.1250000000000000    0.1250000000000000    0.9583333333333334    Cs678
    0.1250000000000000    0.4583333333333334    0.2916666666666667    Cs679
    0.1250000000000000    0.4583333333333334    0.6250000000000000    Cs680
    0.1250000000000000    0.4583333333333334    0.9583333333333334    Cs681
    0.1250000000000000    0.7916666666666667    0.2916666666666667    Cs682
    0.1250000000000000    0.7916666666666667    0.6250000000000000    Cs683
    0.1250000000000000    0.7916666666666667    0.9583333333333334    Cs684
    0.4583333333333334    0.1250000000000000    0.2916666666666667    Cs685
    0.4583333333333334    0.1250000000000000    0.6250000000000000    Cs686
    0.4583333333333334    0.1250000000000000    0.9583333333333334    Cs687
    0.4583333333333334    0.4583333333333334    0.2916666666666667    Cs688
    0.4583333333333334    0.4583333333333334    0.6250000000000000    Cs689
    0.4583333333333334    0.4583333333333334    0.9583333333333334    Cs690
    0.4583333333333334    0.7916666666666667    0.2916666666666667    Cs691
    0.4583333333333334    0.7916666666666667    0.6250000000000000    Cs692
    0.4583333333333334    0.7916666666666667    0.9583333333333334    Cs693
    0.7916666666666667    0.1250000000000000    0.2916666666666667    Cs694
    0.7916666666666667    0.1250000000000000    0.6250000000000000    Cs695
    0.7916666666666667    0.1250000000000000    0.9583333333333334    Cs696
    0.7916666666666667    0.4583333333333334    0.2916666666666667    Cs697
    0.7916666666666667    0.4583333333333334    0.6250000000000000    Cs698
    0.7916666666666667    0.4583333333333334    0.9583333333333334    Cs699
    0.7916666666666667    0.7916666666666667    0.2916666666666667    Cs700
    0.7916666666666667    0.7916666666666667    0.6250000000000000    Cs701
    0.7916666666666667    0.7916666666666667    0.9583333333333334    Cs702
    0.1250000000000000    0.2916666666666667    0.1250000000000000    Cs703
    0.1250000000000000    0.2916666666666667    0.4583333333333334    Cs704
    0.1250000000000000    0.2916666666666667    0.7916666666666667    Cs705
    0.1250000000000000    0.6250000000000000    0.1250000000000000    Cs706
    0.1250000000000000    0.6250000000000000    0.4583333333333334    Cs707
    0.1250000000000000    0.6250000000000000    0.7916666666666667    Cs708
    0.1250000000000000    0.9583333333333334    0.1250000000000000    Cs709
    0.1250000000000000    0.9583333333333334    0.4583333333333334    Cs710
    0.1250000000000000    0.9583333333333334    0.7916666666666667    Cs711
    0.4583333333333334    0.2916666666666667    0.1250000000000000    Cs712
    0.4583333333333334    0.2916666666666667    0.4583333333333334    Cs713
    0.4583333333333334    0.2916666666666667    0.7916666666666667    Cs714
    0.4583333333333334    0.6250000000000000    0.1250000000000000    Cs715
    0.4583333333333334    0.6250000000000000    0.4583333333333334    Cs716
    0.4583333333333334    0.6250000000000000    0.7916666666666667    Cs717
    0.4583333333333334    0.9583333333333334    0.1250000000000000    Cs718
    0.4583333333333334    0.9583333333333334    0.4583333333333334    Cs719
    0.4583333333333334    0.9583333333333334    0.7916666666666667    Cs720
    0.7916666666666667    0.2916666666666667    0.1250000000000000    Cs721
    0.7916666666666667    0.2916666666666667    0.4583333333333334    Cs722
    0.7916666666666667    0.2916666666666667    0.7916666666666667    Cs723
    0.7916666666666667    0.6250000000000000    0.1250000000000000    Cs724
    0.7916666666666667    0.6250000000000000    0.4583333333333334    Cs725
    0.7916666666666667    0.6250000000000000    0.7916666666666667    Cs726
    0.7916666666666667    0.9583333333333334    0.1250000000000000    Cs727
    0.7916666666666667    0.9583333333333334    0.4583333333333334    Cs728
    0.7916666666666667    0.9583333333333334    0.7916666666666667    Cs729
    0.1250000000000000    0.2916666666666667    0.2916666666666667    Cs730
    0.1250000000000000    0.2916666666666667    0.6250000000000000    Cs731
    0.1250000000000000    0.2916666666666667    0.9583333333333334    Cs732
    0.1250000000000000    0.6250000000000000    0.2916666666666667    Cs733
    0.1250000000000000    0.6250000000000000    0.6250000000000000    Cs734
    0.1250000000000000    0.6250000000000000    0.9583333333333334    Cs735
    0.1250000000000000    0.9583333333333334    0.2916666666666667    Cs736
    0.1250000000000000    0.9583333333333334    0.6250000000000000    Cs737
    0.1250000000000000    0.9583333333333334    0.9583333333333334    Cs738
    0.4583333333333334    0.2916666666666667    0.2916666666666667    Cs739
    0.4583333333333334    0.2916666666666667    0.6250000000000000    Cs740
    0.4583333333333334    0.2916666666666667    0.9583333333333334    Cs741
    0.4583333333333334    0.6250000000000000    0.2916666666666667    Cs742
    0.4583333333333334    0.6250000000000000    0.6250000000000000    Cs743
    0.4583333333333334    0.6250000000000000    0.9583333333333334    Cs744
    0.4583333333333334    0.9583333333333334    0.2916666666666667    Cs745
    0.4583333333333334    0.9583333333333334    0.6250000000000000    Cs746
    0.4583333333333334    0.9583333333333334    0.9583333333333334    Cs747
    0.7916666666666667    0.2916666666666667    0.2916666666666667    Cs748
    0.7916666666666667    0.2916666666666667    0.6250000000000000    Cs749
    0.7916666666666667    0.2916666666666667    0.9583333333333334    Cs750
    0.7916666666666667    0.6250000000000000    0.2916666666666667    Cs751
    0.7916666666666667    0.6250000000000000    0.6250000000000000    Cs752
    0.7916666666666667    0.6250000000000000    0.9583333333333334    Cs753
    0.7916666666666667    0.9583333333333334    0.2916666666666667    Cs754
    0.7916666666666667    0.9583333333333334    0.6250000000000000    Cs755
    0.7916666666666667    0.9583333333333334    0.9583333333333334    Cs756
    0.2916666666666667    0.1250000000000000    0.1250000000000000    Cs757
    0.2916666666666667    0.1250000000000000    0.4583333333333334    Cs758
    0.2916666666666667    0.1250000000000000    0.7916666666666667    Cs759
    0.2916666666666667    0.4583333333333334    0.1250000000000000    Cs760
    0.2916666666666667    0.4583333333333334    0.4583333333333334    Cs761
    0.2916666666666667    0.4583333333333334    0.7916666666666667    Cs762
    0.2916666666666667    0.7916666666666667    0.1250000000000000    Cs763
    0.2916666666666667    0.7916666666666667    0.4583333333333334    Cs764
    0.2916666666666667    0.7916666666666667    0.7916666666666667    Cs765
    0.6250000000000000    0.1250000000000000    0.1250000000000000    Cs766
    0.6250000000000000    0.1250000000000000    0.4583333333333334    Cs767
    0.6250000000000000    0.1250000000000000    0.7916666666666667    Cs768
    0.6250000000000000    0.4583333333333334    0.1250000000000000    Cs769
    0.6250000000000000    0.4583333333333334    0.4583333333333334    Cs770
    0.6250000000000000    0.4583333333333334    0.7916666666666667    Cs771
    0.6250000000000000    0.7916666666666667    0.1250000000000000    Cs772
    0.6250000000000000    0.7916666666666667    0.4583333333333334    Cs773
    0.6250000000000000    0.7916666666666667    0.7916666666666667    Cs774
    0.9583333333333334    0.1250000000000000    0.1250000000000000    Cs775
    0.9583333333333334    0.1250000000000000    0.4583333333333334    Cs776
    0.9583333333333334    0.1250000000000000    0.7916666666666667    Cs777
    0.9583333333333334    0.4583333333333334    0.1250000000000000    Cs778
    0.9583333333333334    0.4583333333333334    0.4583333333333334    Cs779
    0.9583333333333334    0.4583333333333334    0.7916666666666667    Cs780
    0.9583333333333334    0.7916666666666667    0.1250000000000000    Cs781
    0.9583333333333334    0.7916666666666667    0.4583333333333334    Cs782
    0.9583333333333334    0.7916666666666667    0.7916666666666667    Cs783
    0.2916666666666667    0.1250000000000000    0.2916666666666667    Cs784
    0.2916666666666667    0.1250000000000000    0.6250000000000000    Cs785
    0.2916666666666667    0.1250000000000000    0.9583333333333334    Cs786
    0.2916666666666667    0.4583333333333334    0.2916666666666667    Cs787
    0.2916666666666667    0.4583333333333334    0.6250000000000000    Cs788
    0.2916666666666667    0.4583333333333334    0.9583333333333334    Cs789
    0.2916666666666667    0.7916666666666667    0.2916666666666667    Cs790
    0.2916666666666667    0.7916666666666667    0.6250000000000000    Cs791
    0.2916666666666667    0.7916666666666667    0.9583333333333334    Cs792
    0.6250000000000000    0.1250000000000000    0.2916666666666667    Cs793
    0.6250000000000000    0.1250000000000000    0.6250000000000000    Cs794
    0.6250000000000000    0.1250000000000000    0.9583333333333334    Cs795
    0.6250000000000000    0.4583333333333334    0.2916666666666667    Cs796
    0.6250000000000000    0.4583333333333334    0.6250000000000000    Cs797
    0.6250000000000000    0.4583333333333334    0.9583333333333334    Cs798
    0.6250000000000000    0.7916666666666667    0.2916666666666667    Cs799
    0.6250000000000000    0.7916666666666667    0.6250000000000000    Cs800
    0.6250000000000000    0.7916666666666667    0.9583333333333334    Cs801
    0.9583333333333334    0.1250000000000000    0.2916666666666667    Cs802
    0.9583333333333334    0.1250000000000000    0.6250000000000000    Cs803
    0.9583333333333334    0.1250000000000000    0.9583333333333334    Cs804
    0.9583333333333334    0.4583333333333334    0.2916666666666667    Cs805
    0.9583333333333334    0.4583333333333334    0.6250000000000000    Cs806
    0.9583333333333334    0.4583333333333334    0.9583333333333334    Cs807
    0.9583333333333334    0.7916666666666667    0.2916666666666667    Cs808
    0.9583333333333334    0.7916666666666667    0.6250000000000000    Cs809
    0.9583333333333334    0.7916666666666667    0.9583333333333334    Cs810
    0.2916666666666667    0.2916666666666667    0.1250000000000000    Cs811
    0.2916666666666667    0.2916666666666667    0.4583333333333334    Cs812
    0.2916666666666667    0.2916666666666667    0.7916666666666667    Cs813
    0.2916666666666667    0.6250000000000000    0.1250000000000000    Cs814
    0.2916666666666667    0.6250000000000000    0.4583333333333334    Cs815
    0.2916666666666667    0.6250000000000000    0.7916666666666667    Cs816
    0.2916666666666667    0.9583333333333334    0.1250000000000000    Cs817
    0.2916666666666667    0.9583333333333334    0.4583333333333334    Cs818
    0.2916666666666667    0.9583333333333334    0.7916666666666667    Cs819
    0.6250000000000000    0.2916666666666667    0.1250000000000000    Cs820
    0.6250000000000000    0.2916666666666667    0.4583333333333334    Cs821
    0.6250000000000000    0.2916666666666667    0.7916666666666667    Cs822
    0.6250000000000000    0.6250000000000000    0.1250000000000000    Cs823
    0.6250000000000000    0.6250000000000000    0.4583333333333334    Cs824
    0.6250000000000000    0.6250000000000000    0.7916666666666667    Cs825
    0.6250000000000000    0.9583333333333334    0.1250000000000000    Cs826
    0.6250000000000000    0.9583333333333334    0.4583333333333334    Cs827
    0.6250000000000000    0.9583333333333334    0.7916666666666667    Cs828
    0.9583333333333334    0.2916666666666667    0.1250000000000000    Cs829
    0.9583333333333334    0.2916666666666667    0.4583333333333334    Cs830
    0.9583333333333334    0.2916666666666667    0.7916666666666667    Cs831
    0.9583333333333334    0.6250000000000000    0.1250000000000000    Cs832
    0.9583333333333334    0.6250000000000000    0.4583333333333334    Cs833
    0.9583333333333334    0.6250000000000000    0.7916666666666667    Cs834
    0.9583333333333334    0.9583333333333334    0.1250000000000000    Cs835
    0.9583333333333334    0.9583333333333334    0.4583333333333334    Cs836
    0.9583333333333334    0.9583333333333334    0.7916666666666667    Cs837
    0.2916666666666667    0.2916666666666667    0.2916666666666667    Cs838
    0.2916666666666667    0.2916666666666667    0.6250000000000000    Cs839
    0.2916666666666667    0.2916666666666667    0.9583333333333334    Cs840
    0.2916666666666667    0.6250000000000000    0.2916666666666667    Cs841
    0.2916666666666667    0.6250000000000000    0.6250000000000000    Cs842
    0.2916666666666667    0.6250000000000000    0.9583333333333334    Cs843
    0.2916666666666667    0.9583333333333334    0.2916666666666667    Cs844
    0.2916666666666667    0.9583333333333334    0.6250000000000000    Cs845
    0.2916666666666667    0.9583333333333334    0.9583333333333334    Cs846
    0.6250000000000000    0.2916666666666667    0.2916666666666667    Cs847
    0.6250000000000000    0.2916666666666667    0.6250000000000000    Cs848
    0.6250000000000000    0.2916666666666667    0.9583333333333334    Cs849
    0.6250000000000000    0.6250000000000000    0.2916666666666667    Cs850
    0.6250000000000000    0.6250000000000000    0.6250000000000000    Cs851
    0.6250000000000000    0.6250000000000000    0.9583333333333334    Cs852
    0.6250000000000000    0.9583333333333334    0.2916666666666667    Cs853
    0.6250000000000000    0.9583333333333334    0.6250000000000000    Cs854
    0.6250000000000000    0.9583333333333334    0.9583333333333334    Cs855
    0.9583333333333334    0.2916666666666667    0.2916666666666667    Cs856
    0.9583333333333334    0.2916666666666667    0.6250000000000000    Cs857
    0.9583333333333334    0.2916666666666667    0.9583333333333334    Cs858
    0.9583333333333334    0.6250000000000000    0.2916666666666667    Cs859
    0.9583333333333334    0.6250000000000000    0.6250000000000000    Cs860
    0.9583333333333334    0.6250000000000000    0.9583333333333334    Cs861
    0.9583333333333334    0.9583333333333334    0.2916666666666667    Cs862
    0.9583333333333334    0.9583333333333334    0.6250000000000000    Cs863
    0.9583333333333334    0.9583333333333334    0.9583333333333334    Cs864
    0.0416666666666667    0.1250000000000000    0.1250000000000000    Cs865
    0.0416666666666667    0.1250000000000000    0.4583333333333334    Cs866
    0.0416666666666667    0.1250000000000000    0.7916666666666667    Cs867
    0.0416666666666667    0.4583333333333334    0.1250000000000000    Cs868
    0.0416666666666667    0.4583333333333334    0.4583333333333334    Cs869
    0.0416666666666667    0.4583333333333334    0.7916666666666667    Cs870
    0.0416666666666667    0.7916666666666667    0.1250000000000000    Cs871
    0.0416666666666667    0.7916666666666667    0.4583333333333334    Cs872
    0.0416666666666667    0.7916666666666667    0.7916666666666667    Cs873
    0.3750000000000000    0.1250000000000000    0.1250000000000000    Cs874
    0.3750000000000000    0.1250000000000000    0.4583333333333334    Cs875
    0.3750000000000000    0.1250000000000000    0.7916666666666667    Cs876
    0.3750000000000000    0.4583333333333334    0.1250000000000000    Cs877
    0.3750000000000000    0.4583333333333334    0.4583333333333334    Cs878
    0.3750000000000000    0.4583333333333334    0.7916666666666667    Cs879
    0.3750000000000000    0.7916666666666667    0.1250000000000000    Cs880
    0.3750000000000000    0.7916666666666667    0.4583333333333334    Cs881
    0.3750000000000000    0.7916666666666667    0.7916666666666667    Cs882
    0.7083333333333334    0.1250000000000000    0.1250000000000000    Cs883
    0.7083333333333334    0.1250000000000000    0.4583333333333334    Cs884
    0.7083333333333334    0.1250000000000000    0.7916666666666667    Cs885
    0.7083333333333334    0.4583333333333334    0.1250000000000000    Cs886
    0.7083333333333334    0.4583333333333334    0.4583333333333334    Cs887
    0.7083333333333334    0.4583333333333334    0.7916666666666667    Cs888
    0.7083333333333334    0.7916666666666667    0.1250000000000000    Cs889
    0.7083333333333334    0.7916666666666667    0.4583333333333334    Cs890
    0.7083333333333334    0.7916666666666667    0.7916666666666667    Cs891
    0.0416666666666667    0.1250000000000000    0.2916666666666667    Cs892
    0.0416666666666667    0.1250000000000000    0.6250000000000000    Cs893
    0.0416666666666667    0.1250000000000000    0.9583333333333334    Cs894
    0.0416666666666667    0.4583333333333334    0.2916666666666667    Cs895
    0.0416666666666667    0.4583333333333334    0.6250000000000000    Cs896
    0.0416666666666667    0.4583333333333334    0.9583333333333334    Cs897
    0.0416666666666667    0.7916666666666667    0.2916666666666667    Cs898
    0.0416666666666667    0.7916666666666667    0.6250000000000000    Cs899
    0.0416666666666667    0.7916666666666667    0.9583333333333334    Cs900
    0.3750000000000000    0.1250000000000000    0.2916666666666667    Cs901
    0.3750000000000000    0.1250000000000000    0.6250000000000000    Cs902
    0.3750000000000000    0.1250000000000000    0.9583333333333334    Cs903
    0.3750000000000000    0.4583333333333334    0.2916666666666667    Cs904
    0.3750000000000000    0.4583333333333334    0.6250000000000000    Cs905
    0.3750000000000000    0.4583333333333334    0.9583333333333334    Cs906
    0.3750000000000000    0.7916666666666667    0.2916666666666667    Cs907
    0.3750000000000000    0.7916666666666667    0.6250000000000000    Cs908
    0.3750000000000000    0.7916666666666667    0.9583333333333334    Cs909
    0.7083333333333334    0.1250000000000000    0.2916666666666667    Cs910
    0.7083333333333334    0.1250000000000000    0.6250000000000000    Cs911
    0.7083333333333334    0.1250000000000000    0.9583333333333334    Cs912
    0.7083333333333334    0.4583333333333334    0.2916666666666667    Cs913
    0.7083333333333334    0.4583333333333334    0.6250000000000000    Cs914
    0.7083333333333334    0.4583333333333334    0.9583333333333334    Cs915
    0.7083333333333334    0.7916666666666667    0.2916666666666667    Cs916
    0.7083333333333334    0.7916666666666667    0.6250000000000000    Cs917
    0.7083333333333334    0.7916666666666667    0.9583333333333334    Cs918
    0.0416666666666667    0.2916666666666667    0.1250000000000000    Cs919
    0.0416666666666667    0.2916666666666667    0.4583333333333334    Cs920
    0.0416666666666667    0.2916666666666667    0.7916666666666667    Cs921
    0.0416666666666667    0.6250000000000000    0.1250000000000000    Cs922
    0.0416666666666667    0.6250000000000000    0.4583333333333334    Cs923
    0.0416666666666667    0.6250000000000000    0.7916666666666667    Cs924
    0.0416666666666667    0.9583333333333334    0.1250000000000000    Cs925
    0.0416666666666667    0.9583333333333334    0.4583333333333334    Cs926
    0.0416666666666667    0.9583333333333334    0.7916666666666667    Cs927
    0.3750000000000000    0.2916666666666667    0.1250000000000000    Cs928
    0.3750000000000000    0.2916666666666667    0.4583333333333334    Cs929
    0.3750000000000000    0.2916666666666667    0.7916666666666667    Cs930
    0.3750000000000000    0.6250000000000000    0.1250000000000000    Cs931
    0.3750000000000000    0.6250000000000000    0.4583333333333334    Cs932
    0.3750000000000000    0.6250000000000000    0.7916666666666667    Cs933
    0.3750000000000000    0.9583333333333334    0.1250000000000000    Cs934
    0.3750000000000000    0.9583333333333334    0.4583333333333334    Cs935
    0.3750000000000000    0.9583333333333334    0.7916666666666667    Cs936
    0.7083333333333334    0.2916666666666667    0.1250000000000000    Cs937
    0.7083333333333334    0.2916666666666667    0.4583333333333334    Cs938
    0.7083333333333334    0.2916666666666667    0.7916666666666667    Cs939
    0.7083333333333334    0.6250000000000000    0.1250000000000000    Cs940
    0.7083333333333334    0.6250000000000000    0.4583333333333334    Cs941
    0.7083333333333334    0.6250000000000000    0.7916666666666667    Cs942
    0.7083333333333334    0.9583333333333334    0.1250000000000000    Cs943
    0.7083333333333334    0.9583333333333334    0.4583333333333334    Cs944
    0.7083333333333334    0.9583333333333334    0.7916666666666667    Cs945
    0.0416666666666667    0.2916666666666667    0.2916666666666667    Cs946
    0.0416666666666667    0.2916666666666667    0.6250000000000000    Cs947
    0.0416666666666667    0.2916666666666667    0.9583333333333334    Cs948
    0.0416666666666667    0.6250000000000000    0.2916666666666667    Cs949
    0.0416666666666667    0.6250000000000000    0.6250000000000000    Cs950
    0.0416666666666667    0.6250000000000000    0.9583333333333334    Cs951
    0.0416666666666667    0.9583333333333334    0.2916666666666667    Cs952
    0.0416666666666667    0.9583333333333334    0.6250000000000000    Cs953
    0.0416666666666667    0.9583333333333334    0.9583333333333334    Cs954
    0.3750000000000000    0.2916666666666667    0.2916666666666667    Cs955
    0.3750000000000000    0.2916666666666667    0.6250000000000000    Cs956
    0.3750000000000000    0.2916666666666667    0.9583333333333334    Cs957
    0.3750000000000000    0.6250000000000000    0.2916666666666667    Cs958
    0.3750000000000000    0.6250000000000000    0.6250000000000000    Cs959
    0.3750000000000000    0.6250000000000000    0.9583333333333334    Cs960
    0.3750000000000000    0.9583333333333334    0.2916666666666667    Cs961
    0.3750000000000000    0.9583333333333334    0.6250000000000000    Cs962
    0.3750000000000000    0.9583333333333334    0.9583333333333334    Cs963
    0.7083333333333334    0.2916666666666667    0.2916666666666667    Cs964
    0.7083333333333334    0.2916666666666667    0.6250000000000000    Cs965
    0.7083333333333334    0.2916666666666667    0.9583333333333334    Cs966
    0.7083333333333334    0.6250000000000000    0.2916666666666667    Cs967
    0.7083333333333334    0.6250000000000000    0.6250000000000000    Cs968
    0.7083333333333334    0.6250000000000000    0.9583333333333334    Cs969
    0.7083333333333334    0.9583333333333334    0.2916666666666667    Cs970
    0.7083333333333334    0.9583333333333334    0.6250000000000000    Cs971
    0.7083333333333334    0.9583333333333334    0.9583333333333334    Cs972
    0.2083333333333334    0.1250000000000000    0.1250000000000000    Cs973
    0.2083333333333334    0.1250000000000000    0.4583333333333334    Cs974
    0.2083333333333334    0.1250000000000000    0.7916666666666667    Cs975
    0.2083333333333334    0.4583333333333334    0.1250000000000000    Cs976
    0.2083333333333334    0.4583333333333334    0.4583333333333334    Cs977
    0.2083333333333334    0.4583333333333334    0.7916666666666667    Cs978
    0.2083333333333334    0.7916666666666667    0.1250000000000000    Cs979
    0.2083333333333334    0.7916666666666667    0.4583333333333334    Cs980
    0.2083333333333334    0.7916666666666667    0.7916666666666667    Cs981
    0.5416666666666667    0.1250000000000000    0.1250000000000000    Cs982
    0.5416666666666667    0.1250000000000000    0.4583333333333334    Cs983
    0.5416666666666667    0.1250000000000000    0.7916666666666667    Cs984
    0.5416666666666667    0.4583333333333334    0.1250000000000000    Cs985
    0.5416666666666667    0.4583333333333334    0.4583333333333334    Cs986
    0.5416666666666667    0.4583333333333334    0.7916666666666667    Cs987
    0.5416666666666667    0.7916666666666667    0.1250000000000000    Cs988
    0.5416666666666667    0.7916666666666667    0.4583333333333334    Cs989
    0.5416666666666667    0.7916666666666667    0.7916666666666667    Cs990
    0.8750000000000000    0.1250000000000000    0.1250000000000000    Cs991
    0.8750000000000000    0.1250000000000000    0.4583333333333334    Cs992
    0.8750000000000000    0.1250000000000000    0.7916666666666667    Cs993
    0.8750000000000000    0.4583333333333334    0.1250000000000000    Cs994
    0.8750000000000000    0.4583333333333334    0.4583333333333334    Cs995
    0.8750000000000000    0.4583333333333334    0.7916666666666667    Cs996
    0.8750000000000000    0.7916666666666667    0.1250000000000000    Cs997
    0.8750000000000000    0.7916666666666667    0.4583333333333334    Cs998
    0.8750000000000000    0.7916666666666667    0.7916666666666667    Cs999
    0.2083333333333334    0.1250000000000000    0.2916666666666667   Cs1000
    0.2083333333333334    0.1250000000000000    0.6250000000000000   Cs1001
    0.2083333333333334    0.1250000000000000    0.9583333333333334   Cs1002
    0.2083333333333334    0.4583333333333334    0.2916666666666667   Cs1003
    0.2083333333333334    0.4583333333333334    0.6250000000000000   Cs1004
    0.2083333333333334    0.4583333333333334    0.9583333333333334   Cs1005
    0.2083333333333334    0.7916666666666667    0.2916666666666667   Cs1006
    0.2083333333333334    0.7916666666666667    0.6250000000000000   Cs1007
    0.2083333333333334    0.7916666666666667    0.9583333333333334   Cs1008
    0.5416666666666667    0.1250000000000000    0.2916666666666667   Cs1009
    0.5416666666666667    0.1250000000000000    0.6250000000000000   Cs1010
    0.5416666666666667    0.1250000000000000    0.9583333333333334   Cs1011
    0.5416666666666667    0.4583333333333334    0.2916666666666667   Cs1012
    0.5416666666666667    0.4583333333333334    0.6250000000000000   Cs1013
    0.5416666666666667    0.4583333333333334    0.9583333333333334   Cs1014
    0.5416666666666667    0.7916666666666667    0.2916666666666667   Cs1015
    0.5416666666666667    0.7916666666666667    0.6250000000000000   Cs1016
    0.5416666666666667    0.7916666666666667    0.9583333333333334   Cs1017
    0.8750000000000000    0.1250000000000000    0.2916666666666667   Cs1018
    0.8750000000000000    0.1250000000000000    0.6250000000000000   Cs1019
    0.8750000000000000    0.1250000000000000    0.9583333333333334   Cs1020
    0.8750000000000000    0.4583333333333334    0.2916666666666667   Cs1021
    0.8750000000000000    0.4583333333333334    0.6250000000000000   Cs1022
    0.8750000000000000    0.4583333333333334    0.9583333333333334   Cs1023
    0.8750000000000000    0.7916666666666667    0.2916666666666667   Cs1024
    0.8750000000000000    0.7916666666666667    0.6250000000000000   Cs1025
    0.8750000000000000    0.7916666666666667    0.9583333333333334   Cs1026
    0.2083333333333334    0.2916666666666667    0.1250000000000000   Cs1027
    0.2083333333333334    0.2916666666666667    0.4583333333333334   Cs1028
    0.2083333333333334    0.2916666666666667    0.7916666666666667   Cs1029
    0.2083333333333334    0.6250000000000000    0.1250000000000000   Cs1030
    0.2083333333333334    0.6250000000000000    0.4583333333333334   Cs1031
    0.2083333333333334    0.6250000000000000    0.7916666666666667   Cs1032
    0.2083333333333334    0.9583333333333334    0.1250000000000000   Cs1033
    0.2083333333333334    0.9583333333333334    0.4583333333333334   Cs1034
    0.2083333333333334    0.9583333333333334    0.7916666666666667   Cs1035
    0.5416666666666667    0.2916666666666667    0.1250000000000000   Cs1036
    0.5416666666666667    0.2916666666666667    0.4583333333333334   Cs1037
    0.5416666666666667    0.2916666666666667    0.7916666666666667   Cs1038
    0.5416666666666667    0.6250000000000000    0.1250000000000000   Cs1039
    0.5416666666666667    0.6250000000000000    0.4583333333333334   Cs1040
    0.5416666666666667    0.6250000000000000    0.7916666666666667   Cs1041
    0.5416666666666667    0.9583333333333334    0.1250000000000000   Cs1042
    0.5416666666666667    0.9583333333333334    0.4583333333333334   Cs1043
    0.5416666666666667    0.9583333333333334    0.7916666666666667   Cs1044
    0.8750000000000000    0.2916666666666667    0.1250000000000000   Cs1045
    0.8750000000000000    0.2916666666666667    0.4583333333333334   Cs1046
    0.8750000000000000    0.2916666666666667    0.7916666666666667   Cs1047
    0.8750000000000000    0.6250000000000000    0.1250000000000000   Cs1048
    0.8750000000000000    0.6250000000000000    0.4583333333333334   Cs1049
    0.8750000000000000    0.6250000000000000    0.7916666666666667   Cs1050
    0.8750000000000000    0.9583333333333334    0.1250000000000000   Cs1051
    0.8750000000000000    0.9583333333333334    0.4583333333333334   Cs1052
    0.8750000000000000    0.9583333333333334    0.7916666666666667   Cs1053
    0.2083333333333334    0.2916666666666667    0.2916666666666667   Cs1054
    0.2083333333333334    0.2916666666666667    0.6250000000000000   Cs1055
    0.2083333333333334    0.2916666666666667    0.9583333333333334   Cs1056
    0.2083333333333334    0.6250000000000000    0.2916666666666667   Cs1057
    0.2083333333333334    0.6250000000000000    0.6250000000000000   Cs1058
    0.2083333333333334    0.6250000000000000    0.9583333333333334   Cs1059
    0.2083333333333334    0.9583333333333334    0.2916666666666667   Cs1060
    0.2083333333333334    0.9583333333333334    0.6250000000000000   Cs1061
    0.2083333333333334    0.9583333333333334    0.9583333333333334   Cs1062
    0.5416666666666667    0.2916666666666667    0.2916666666666667   Cs1063
    0.5416666666666667    0.2916666666666667    0.6250000000000000   Cs1064
    0.5416666666666667    0.2916666666666667    0.9583333333333334   Cs1065
    0.5416666666666667    0.6250000000000000    0.2916666666666667   Cs1066
    0.5416666666666667    0.6250000000000000    0.6250000000000000   Cs1067
    0.5416666666666667    0.6250000000000000    0.9583333333333334   Cs1068
    0.5416666666666667    0.9583333333333334    0.2916666666666667   Cs1069
    0.5416666666666667    0.9583333333333334    0.6250000000000000   Cs1070
    0.5416666666666667    0.9583333333333334    0.9583333333333334   Cs1071
    0.8750000000000000    0.2916666666666667    0.2916666666666667   Cs1072
    0.8750000000000000    0.2916666666666667    0.6250000000000000   Cs1073
    0.8750000000000000    0.2916666666666667    0.9583333333333334   Cs1074
    0.8750000000000000    0.6250000000000000    0.2916666666666667   Cs1075
    0.8750000000000000    0.6250000000000000    0.6250000000000000   Cs1076
    0.8750000000000000    0.6250000000000000    0.9583333333333334   Cs1077
    0.8750000000000000    0.9583333333333334    0.2916666666666667   Cs1078
    0.8750000000000000    0.9583333333333334    0.6250000000000000   Cs1079
    0.8750000000000000    0.9583333333333334    0.9583333333333334   Cs1080
    0.0416666666666667    0.0416666666666667    0.1250000000000000   Cs1081
    0.0416666666666667    0.0416666666666667    0.4583333333333334   Cs1082
    0.0416666666666667    0.0416666666666667    0.7916666666666667   Cs1083
    0.0416666666666667    0.3750000000000000    0.1250000000000000   Cs1084
    0.0416666666666667    0.3750000000000000    0.4583333333333334   Cs1085
    0.0416666666666667    0.3750000000000000    0.7916666666666667   Cs1086
    0.0416666666666667    0.7083333333333334    0.1250000000000000   Cs1087
    0.0416666666666667    0.7083333333333334    0.4583333333333334   Cs1088
    0.0416666666666667    0.7083333333333334    0.7916666666666667   Cs1089
    0.3750000000000000    0.0416666666666667    0.1250000000000000   Cs1090
    0.3750000000000000    0.0416666666666667    0.4583333333333334   Cs1091
    0.3750000000000000    0.0416666666666667    0.7916666666666667   Cs1092
    0.3750000000000000    0.3750000000000000    0.1250000000000000   Cs1093
    0.3750000000000000    0.3750000000000000    0.4583333333333334   Cs1094
    0.3750000000000000    0.3750000000000000    0.7916666666666667   Cs1095
    0.3750000000000000    0.7083333333333334    0.1250000000000000   Cs1096
    0.3750000000000000    0.7083333333333334    0.4583333333333334   Cs1097
    0.3750000000000000    0.7083333333333334    0.7916666666666667   Cs1098
    0.7083333333333334    0.0416666666666667    0.1250000000000000   Cs1099
    0.7083333333333334    0.0416666666666667    0.4583333333333334   Cs1100
    0.7083333333333334    0.0416666666666667    0.7916666666666667   Cs1101
    0.7083333333333334    0.3750000000000000    0.1250000000000000   Cs1102
    0.7083333333333334    0.3750000000000000    0.4583333333333334   Cs1103
    0.7083333333333334    0.3750000000000000    0.7916666666666667   Cs1104
    0.7083333333333334    0.7083333333333334    0.1250000000000000   Cs1105
    0.7083333333333334    0.7083333333333334    0.4583333333333334   Cs1106
    0.7083333333333334    0.7083333333333334    0.7916666666666667   Cs1107
    0.0416666666666667    0.0416666666666667    0.2916666666666667   Cs1108
    0.0416666666666667    0.0416666666666667    0.6250000000000000   Cs1109
    0.0416666666666667    0.0416666666666667    0.9583333333333334   Cs1110
    0.0416666666666667    0.3750000000000000    0.2916666666666667   Cs1111
    0.0416666666666667    0.3750000000000000    0.6250000000000000   Cs1112
    0.0416666666666667    0.3750000000000000    0.9583333333333334   Cs1113
    0.0416666666666667    0.7083333333333334    0.2916666666666667   Cs1114
    0.0416666666666667    0.7083333333333334    0.6250000000000000   Cs1115
    0.0416666666666667    0.7083333333333334    0.9583333333333334   Cs1116
    0.3750000000000000    0.0416666666666667    0.2916666666666667   Cs1117
    0.3750000000000000    0.0416666666666667    0.6250000000000000   Cs1118
    0.3750000000000000    0.0416666666666667    0.9583333333333334   Cs1119
    0.3750000000000000    0.3750000000000000    0.2916666666666667   Cs1120
    0.3750000000000000    0.3750000000000000    0.6250000000000000   Cs1121
    0.3750000000000000    0.3750000000000000    0.9583333333333334   Cs1122
    0.3750000000000000    0.7083333333333334    0.2916666666666667   Cs1123
    0.3750000000000000    0.7083333333333334    0.6250000000000000   Cs1124
    0.3750000000000000    0.7083333333333334    0.9583333333333334   Cs1125
    0.7083333333333334    0.0416666666666667    0.2916666666666667   Cs1126
    0.7083333333333334    0.0416666666666667    0.6250000000000000   Cs1127
    0.7083333333333334    0.0416666666666667    0.9583333333333334   Cs1128
    0.7083333333333334    0.3750000000000000    0.2916666666666667   Cs1129
    0.7083333333333334    0.3750000000000000    0.6250000000000000   Cs1130
    0.7083333333333334    0.3750000000000000    0.9583333333333334   Cs1131
    0.7083333333333334    0.7083333333333334    0.2916666666666667   Cs1132
    0.7083333333333334    0.7083333333333334    0.6250000000000000   Cs1133
    0.7083333333333334    0.7083333333333334    0.9583333333333334   Cs1134
    0.0416666666666667    0.2083333333333334    0.1250000000000000   Cs1135
    0.0416666666666667    0.2083333333333334    0.4583333333333334   Cs1136
    0.0416666666666667    0.2083333333333334    0.7916666666666667   Cs1137
    0.0416666666666667    0.5416666666666667    0.1250000000000000   Cs1138
    0.0416666666666667    0.5416666666666667    0.4583333333333334   Cs1139
    0.0416666666666667    0.5416666666666667    0.7916666666666667   Cs1140
    0.0416666666666667    0.8750000000000000    0.1250000000000000   Cs1141
    0.0416666666666667    0.8750000000000000    0.4583333333333334   Cs1142
    0.0416666666666667    0.8750000000000000    0.7916666666666667   Cs1143
    0.3750000000000000    0.2083333333333334    0.1250000000000000   Cs1144
    0.3750000000000000    0.2083333333333334    0.4583333333333334   Cs1145
    0.3750000000000000    0.2083333333333334    0.7916666666666667   Cs1146
    0.3750000000000000    0.5416666666666667    0.1250000000000000   Cs1147
    0.3750000000000000    0.5416666666666667    0.4583333333333334   Cs1148
    0.3750000000000000    0.5416666666666667    0.7916666666666667   Cs1149
    0.3750000000000000    0.8750000000000000    0.1250000000000000   Cs1150
    0.3750000000000000    0.8750000000000000    0.4583333333333334   Cs1151
    0.3750000000000000    0.8750000000000000    0.7916666666666667   Cs1152
    0.7083333333333334    0.2083333333333334    0.1250000000000000   Cs1153
    0.7083333333333334    0.2083333333333334    0.4583333333333334   Cs1154
    0.7083333333333334    0.2083333333333334    0.7916666666666667   Cs1155
    0.7083333333333334    0.5416666666666667    0.1250000000000000   Cs1156
    0.7083333333333334    0.5416666666666667    0.4583333333333334   Cs1157
    0.7083333333333334    0.5416666666666667    0.7916666666666667   Cs1158
    0.7083333333333334    0.8750000000000000    0.1250000000000000   Cs1159
    0.7083333333333334    0.8750000000000000    0.4583333333333334   Cs1160
    0.7083333333333334    0.8750000000000000    0.7916666666666667   Cs1161
    0.0416666666666667    0.2083333333333334    0.2916666666666667   Cs1162
    0.0416666666666667    0.2083333333333334    0.6250000000000000   Cs1163
    0.0416666666666667    0.2083333333333334    0.9583333333333334   Cs1164
    0.0416666666666667    0.5416666666666667    0.2916666666666667   Cs1165
    0.0416666666666667    0.5416666666666667    0.6250000000000000   Cs1166
    0.0416666666666667    0.5416666666666667    0.9583333333333334   Cs1167
    0.0416666666666667    0.8750000000000000    0.2916666666666667   Cs1168
    0.0416666666666667    0.8750000000000000    0.6250000000000000   Cs1169
    0.0416666666666667    0.8750000000000000    0.9583333333333334   Cs1170
    0.3750000000000000    0.2083333333333334    0.2916666666666667   Cs1171
    0.3750000000000000    0.2083333333333334    0.6250000000000000   Cs1172
    0.3750000000000000    0.2083333333333334    0.9583333333333334   Cs1173
    0.3750000000000000    0.5416666666666667    0.2916666666666667   Cs1174
    0.3750000000000000    0.5416666666666667    0.6250000000000000   Cs1175
    0.3750000000000000    0.5416666666666667    0.9583333333333334   Cs1176
    0.3750000000000000    0.8750000000000000    0.2916666666666667   Cs1177
    0.3750000000000000    0.8750000000000000    0.6250000000000000   Cs1178
    0.3750000000000000    0.8750000000000000    0.9583333333333334   Cs1179
    0.7083333333333334    0.2083333333333334    0.2916666666666667   Cs1180
    0.7083333333333334    0.2083333333333334    0.6250000000000000   Cs1181
    0.7083333333333334    0.2083333333333334    0.9583333333333334   Cs1182
    0.7083333333333334    0.5416666666666667    0.2916666666666667   Cs1183
    0.7083333333333334    0.5416666666666667    0.6250000000000000   Cs1184
    0.7083333333333334    0.5416666666666667    0.9583333333333334   Cs1185
    0.7083333333333334    0.8750000000000000    0.2916666666666667   Cs1186
    0.7083333333333334    0.8750000000000000    0.6250000000000000   Cs1187
    0.7083333333333334    0.8750000000000000    0.9583333333333334   Cs1188
    0.2083333333333334    0.0416666666666667    0.1250000000000000   Cs1189
    0.2083333333333334    0.0416666666666667    0.4583333333333334   Cs1190
    0.2083333333333334    0.0416666666666667    0.7916666666666667   Cs1191
    0.2083333333333334    0.3750000000000000    0.1250000000000000   Cs1192
    0.2083333333333334    0.3750000000000000    0.4583333333333334   Cs1193
    0.2083333333333334    0.3750000000000000    0.7916666666666667   Cs1194
    0.2083333333333334    0.7083333333333334    0.1250000000000000   Cs1195
    0.2083333333333334    0.7083333333333334    0.4583333333333334   Cs1196
    0.2083333333333334    0.7083333333333334    0.7916666666666667   Cs1197
    0.5416666666666667    0.0416666666666667    0.1250000000000000   Cs1198
    0.5416666666666667    0.0416666666666667    0.4583333333333334   Cs1199
    0.5416666666666667    0.0416666666666667    0.7916666666666667   Cs1200
    0.5416666666666667    0.3750000000000000    0.1250000000000000   Cs1201
    0.5416666666666667    0.3750000000000000    0.4583333333333334   Cs1202
    0.5416666666666667    0.3750000000000000    0.7916666666666667   Cs1203
    0.5416666666666667    0.7083333333333334    0.1250000000000000   Cs1204
    0.5416666666666667    0.7083333333333334    0.4583333333333334   Cs1205
    0.5416666666666667    0.7083333333333334    0.7916666666666667   Cs1206
    0.8750000000000000    0.0416666666666667    0.1250000000000000   Cs1207
    0.8750000000000000    0.0416666666666667    0.4583333333333334   Cs1208
    0.8750000000000000    0.0416666666666667    0.7916666666666667   Cs1209
    0.8750000000000000    0.3750000000000000    0.1250000000000000   Cs1210
    0.8750000000000000    0.3750000000000000    0.4583333333333334   Cs1211
    0.8750000000000000    0.3750000000000000    0.7916666666666667   Cs1212
    0.8750000000000000    0.7083333333333334    0.1250000000000000   Cs1213
    0.8750000000000000    0.7083333333333334    0.4583333333333334   Cs1214
    0.8750000000000000    0.7083333333333334    0.7916666666666667   Cs1215
    0.2083333333333334    0.0416666666666667    0.2916666666666667   Cs1216
    0.2083333333333334    0.0416666666666667    0.6250000000000000   Cs1217
    0.2083333333333334    0.0416666666666667    0.9583333333333334   Cs1218
    0.2083333333333334    0.3750000000000000    0.2916666666666667   Cs1219
    0.2083333333333334    0.3750000000000000    0.6250000000000000   Cs1220
    0.2083333333333334    0.3750000000000000    0.9583333333333334   Cs1221
    0.2083333333333334    0.7083333333333334    0.2916666666666667   Cs1222
    0.2083333333333334    0.7083333333333334    0.6250000000000000   Cs1223
    0.2083333333333334    0.7083333333333334    0.9583333333333334   Cs1224
    0.5416666666666667    0.0416666666666667    0.2916666666666667   Cs1225
    0.5416666666666667    0.0416666666666667    0.6250000000000000   Cs1226
    0.5416666666666667    0.0416666666666667    0.9583333333333334   Cs1227
    0.5416666666666667    0.3750000000000000    0.2916666666666667   Cs1228
    0.5416666666666667    0.3750000000000000    0.6250000000000000   Cs1229
    0.5416666666666667    0.3750000000000000    0.9583333333333334   Cs1230
    0.5416666666666667    0.7083333333333334    0.2916666666666667   Cs1231
    0.5416666666666667    0.7083333333333334    0.6250000000000000   Cs1232
    0.5416666666666667    0.7083333333333334    0.9583333333333334   Cs1233
    0.8750000000000000    0.0416666666666667    0.2916666666666667   Cs1234
    0.8750000000000000    0.0416666666666667    0.6250000000000000   Cs1235
    0.8750000000000000    0.0416666666666667    0.9583333333333334   Cs1236
    0.8750000000000000    0.3750000000000000    0.2916666666666667   Cs1237
    0.8750000000000000    0.3750000000000000    0.6250000000000000   Cs1238
    0.8750000000000000    0.3750000000000000    0.9583333333333334   Cs1239
    0.8750000000000000    0.7083333333333334    0.2916666666666667   Cs1240
    0.8750000000000000    0.7083333333333334    0.6250000000000000   Cs1241
    0.8750000000000000    0.7083333333333334    0.9583333333333334   Cs1242
    0.2083333333333334    0.2083333333333334    0.1250000000000000   Cs1243
    0.2083333333333334    0.2083333333333334    0.4583333333333334   Cs1244
    0.2083333333333334    0.2083333333333334    0.7916666666666667   Cs1245
    0.2083333333333334    0.5416666666666667    0.1250000000000000   Cs1246
    0.2083333333333334    0.5416666666666667    0.4583333333333334   Cs1247
    0.2083333333333334    0.5416666666666667    0.7916666666666667   Cs1248
    0.2083333333333334    0.8750000000000000    0.1250000000000000   Cs1249
    0.2083333333333334    0.8750000000000000    0.4583333333333334   Cs1250
    0.2083333333333334    0.8750000000000000    0.7916666666666667   Cs1251
    0.5416666666666667    0.2083333333333334    0.1250000000000000   Cs1252
    0.5416666666666667    0.2083333333333334    0.4583333333333334   Cs1253
    0.5416666666666667    0.2083333333333334    0.7916666666666667   Cs1254
    0.5416666666666667    0.5416666666666667    0.1250000000000000   Cs1255
    0.5416666666666667    0.5416666666666667    0.4583333333333334   Cs1256
    0.5416666666666667    0.5416666666666667    0.7916666666666667   Cs1257
    0.5416666666666667    0.8750000000000000    0.1250000000000000   Cs1258
    0.5416666666666667    0.8750000000000000    0.4583333333333334   Cs1259
    0.5416666666666667    0.8750000000000000    0.7916666666666667   Cs1260
    0.8750000000000000    0.2083333333333334    0.1250000000000000   Cs1261
    0.8750000000000000    0.2083333333333334    0.4583333333333334   Cs1262
    0.8750000000000000    0.2083333333333334    0.7916666666666667   Cs1263
    0.8750000000000000    0.5416666666666667    0.1250000000000000   Cs1264
    0.8750000000000000    0.5416666666666667    0.4583333333333334   Cs1265
    0.8750000000000000    0.5416666666666667    0.7916666666666667   Cs1266
    0.8750000000000000    0.8750000000000000    0.1250000000000000   Cs1267
    0.8750000000000000    0.8750000000000000    0.4583333333333334   Cs1268
    0.8750000000000000    0.8750000000000000    0.7916666666666667   Cs1269
    0.2083333333333334    0.2083333333333334    0.2916666666666667   Cs1270
    0.2083333333333334    0.2083333333333334    0.6250000000000000   Cs1271
    0.2083333333333334    0.2083333333333334    0.9583333333333334   Cs1272
    0.2083333333333334    0.5416666666666667    0.2916666666666667   Cs1273
    0.2083333333333334    0.5416666666666667    0.6250000000000000   Cs1274
    0.2083333333333334    0.5416666666666667    0.9583333333333334   Cs1275
    0.2083333333333334    0.8750000000000000    0.2916666666666667   Cs1276
    0.2083333333333334    0.8750000000000000    0.6250000000000000   Cs1277
    0.2083333333333334    0.8750000000000000    0.9583333333333334   Cs1278
    0.5416666666666667    0.2083333333333334    0.2916666666666667   Cs1279
    0.5416666666666667    0.2083333333333334    0.6250000000000000   Cs1280
    0.5416666666666667    0.2083333333333334    0.9583333333333334   Cs1281
    0.5416666666666667    0.5416666666666667    0.2916666666666667   Cs1282
    0.5416666666666667    0.5416666666666667    0.6250000000000000   Cs1283
    0.5416666666666667    0.5416666666666667    0.9583333333333334   Cs1284
    0.5416666666666667    0.8750000000000000    0.2916666666666667   Cs1285
    0.5416666666666667    0.8750000000000000    0.6250000000000000   Cs1286
    0.5416666666666667    0.8750000000000000    0.9583333333333334   Cs1287
    0.8750000000000000    0.2083333333333334    0.2916666666666667   Cs1288
    0.8750000000000000    0.2083333333333334    0.6250000000000000   Cs1289
    0.8750000000000000    0.2083333333333334    0.9583333333333334   Cs1290
    0.8750000000000000    0.5416666666666667    0.2916666666666667   Cs1291
    0.8750000000000000    0.5416666666666667    0.6250000000000000   Cs1292
    0.8750000000000000    0.5416666666666667    0.9583333333333334   Cs1293
    0.8750000000000000    0.8750000000000000    0.2916666666666667   Cs1294
    0.8750000000000000    0.8750000000000000    0.6250000000000000   Cs1295
    0.8750000000000000    0.8750000000000000    0.9583333333333334   Cs1296
    0.0416666666666667    0.0416666666666667    0.0416666666666667   Cs1297
    0.0416666666666667    0.0416666666666667    0.3750000000000000   Cs1298
    0.0416666666666667    0.0416666666666667    0.7083333333333334   Cs1299
    0.0416666666666667    0.3750000000000000    0.0416666666666667   Cs1300
    0.0416666666666667    0.3750000000000000    0.3750000000000000   Cs1301
    0.0416666666666667    0.3750000000000000    0.7083333333333334   Cs1302
    0.0416666666666667    0.7083333333333334    0.0416666666666667   Cs1303
    0.0416666666666667    0.7083333333333334    0.3750000000000000   Cs1304
    0.0416666666666667    0.7083333333333334    0.7083333333333334   Cs1305
    0.3750000000000000    0.0416666666666667    0.0416666666666667   Cs1306
    0.3750000000000000    0.0416666666666667    0.3750000000000000   Cs1307
    0.3750000000000000    0.0416666666666667    0.7083333333333334   Cs1308
    0.3750000000000000    0.3750000000000000    0.0416666666666667   Cs1309
    0.3750000000000000    0.3750000000000000    0.3750000000000000   Cs1310
    0.3750000000000000    0.3750000000000000    0.7083333333333334   Cs1311
    0.3750000000000000    0.7083333333333334    0.0416666666666667   Cs1312
    0.3750000000000000    0.7083333333333334    0.3750000000000000   Cs1313
    0.3750000000000000    0.7083333333333334    0.7083333333333334   Cs1314
    0.7083333333333334    0.0416666666666667    0.0416666666666667   Cs1315
    0.7083333333333334    0.0416666666666667    0.3750000000000000   Cs1316
    0.7083333333333334    0.0416666666666667    0.7083333333333334   Cs1317
    0.7083333333333334    0.3750000000000000    0.0416666666666667   Cs1318
    0.7083333333333334    0.3750000000000000    0.3750000000000000   Cs1319
    0.7083333333333334    0.3750000000000000    0.7083333333333334   Cs1320
    0.7083333333333334    0.7083333333333334    0.0416666666666667   Cs1321
    0.7083333333333334    0.7083333333333334    0.3750000000000000   Cs1322
    0.7083333333333334    0.7083333333333334    0.7083333333333334   Cs1323
    0.0416666666666667    0.0416666666666667    0.2083333333333334   Cs1324
    0.0416666666666667    0.0416666666666667    0.5416666666666667   Cs1325
    0.0416666666666667    0.0416666666666667    0.8750000000000000   Cs1326
    0.0416666666666667    0.3750000000000000    0.2083333333333334   Cs1327
    0.0416666666666667    0.3750000000000000    0.5416666666666667   Cs1328
    0.0416666666666667    0.3750000000000000    0.8750000000000000   Cs1329
    0.0416666666666667    0.7083333333333334    0.2083333333333334   Cs1330
    0.0416666666666667    0.7083333333333334    0.5416666666666667   Cs1331
    0.0416666666666667    0.7083333333333334    0.8750000000000000   Cs1332
    0.3750000000000000    0.0416666666666667    0.2083333333333334   Cs1333
    0.3750000000000000    0.0416666666666667    0.5416666666666667   Cs1334
    0.3750000000000000    0.0416666666666667    0.8750000000000000   Cs1335
    0.3750000000000000    0.3750000000000000    0.2083333333333334   Cs1336
    0.3750000000000000    0.3750000000000000    0.5416666666666667   Cs1337
    0.3750000000000000    0.3750000000000000    0.8750000000000000   Cs1338
    0.3750000000000000    0.7083333333333334    0.2083333333333334   Cs1339
    0.3750000000000000    0.7083333333333334    0.5416666666666667   Cs1340
    0.3750000000000000    0.7083333333333334    0.8750000000000000   Cs1341
    0.7083333333333334    0.0416666666666667    0.2083333333333334   Cs1342
    0.7083333333333334    0.0416666666666667    0.5416666666666667   Cs1343
    0.7083333333333334    0.0416666666666667    0.8750000000000000   Cs1344
    0.7083333333333334    0.3750000000000000    0.2083333333333334   Cs1345
    0.7083333333333334    0.3750000000000000    0.5416666666666667   Cs1346
    0.7083333333333334    0.3750000000000000    0.8750000000000000   Cs1347
    0.7083333333333334    0.7083333333333334    0.2083333333333334   Cs1348
    0.7083333333333334    0.7083333333333334    0.5416666666666667   Cs1349
    0.7083333333333334    0.7083333333333334    0.8750000000000000   Cs1350
    0.0416666666666667    0.2083333333333334    0.0416666666666667   Cs1351
    0.0416666666666667    0.2083333333333334    0.3750000000000000   Cs1352
    0.0416666666666667    0.2083333333333334    0.7083333333333334   Cs1353
    0.0416666666666667    0.5416666666666667    0.0416666666666667   Cs1354
    0.0416666666666667    0.5416666666666667    0.3750000000000000   Cs1355
    0.0416666666666667    0.5416666666666667    0.7083333333333334   Cs1356
    0.0416666666666667    0.8750000000000000    0.0416666666666667   Cs1357
    0.0416666666666667    0.8750000000000000    0.3750000000000000   Cs1358
    0.0416666666666667    0.8750000000000000    0.7083333333333334   Cs1359
    0.3750000000000000    0.2083333333333334    0.0416666666666667   Cs1360
    0.3750000000000000    0.2083333333333334    0.3750000000000000   Cs1361
    0.3750000000000000    0.2083333333333334    0.7083333333333334   Cs1362
    0.3750000000000000    0.5416666666666667    0.0416666666666667   Cs1363
    0.3750000000000000    0.5416666666666667    0.3750000000000000   Cs1364
    0.3750000000000000    0.5416666666666667    0.7083333333333334   Cs1365
    0.3750000000000000    0.8750000000000000    0.0416666666666667   Cs1366
    0.3750000000000000    0.8750000000000000    0.3750000000000000   Cs1367
    0.3750000000000000    0.8750000000000000    0.7083333333333334   Cs1368
    0.7083333333333334    0.2083333333333334    0.0416666666666667   Cs1369
    0.7083333333333334    0.2083333333333334    0.3750000000000000   Cs1370
    0.7083333333333334    0.2083333333333334    0.7083333333333334   Cs1371
    0.7083333333333334    0.5416666666666667    0.0416666666666667   Cs1372
    0.7083333333333334    0.5416666666666667    0.3750000000000000   Cs1373
    0.7083333333333334    0.5416666666666667    0.7083333333333334   Cs1374
    0.7083333333333334    0.8750000000000000    0.0416666666666667   Cs1375
    0.7083333333333334    0.8750000000000000    0.3750000000000000   Cs1376
    0.7083333333333334    0.8750000000000000    0.7083333333333334   Cs1377
    0.0416666666666667    0.2083333333333334    0.2083333333333334   Cs1378
    0.0416666666666667    0.2083333333333334    0.5416666666666667   Cs1379
    0.0416666666666667    0.2083333333333334    0.8750000000000000   Cs1380
    0.0416666666666667    0.5416666666666667    0.2083333333333334   Cs1381
    0.0416666666666667    0.5416666666666667    0.5416666666666667   Cs1382
    0.0416666666666667    0.5416666666666667    0.8750000000000000   Cs1383
    0.0416666666666667    0.8750000000000000    0.2083333333333334   Cs1384
    0.0416666666666667    0.8750000000000000    0.5416666666666667   Cs1385
    0.0416666666666667    0.8750000000000000    0.8750000000000000   Cs1386
    0.3750000000000000    0.2083333333333334    0.2083333333333334   Cs1387
    0.3750000000000000    0.2083333333333334    0.5416666666666667   Cs1388
    0.3750000000000000    0.2083333333333334    0.8750000000000000   Cs1389
    0.3750000000000000    0.5416666666666667    0.2083333333333334   Cs1390
    0.3750000000000000    0.5416666666666667    0.5416666666666667   Cs1391
    0.3750000000000000    0.5416666666666667    0.8750000000000000   Cs1392
    0.3750000000000000    0.8750000000000000    0.2083333333333334   Cs1393
    0.3750000000000000    0.8750000000000000    0.5416666666666667   Cs1394
    0.3750000000000000    0.8750000000000000    0.8750000000000000   Cs1395
    0.7083333333333334    0.2083333333333334    0.2083333333333334   Cs1396
    0.7083333333333334    0.2083333333333334    0.5416666666666667   Cs1397
    0.7083333333333334    0.2083333333333334    0.8750000000000000   Cs1398
    0.7083333333333334    0.5416666666666667    0.2083333333333334   Cs1399
    0.7083333333333334    0.5416666666666667    0.5416666666666667   Cs1400
    0.7083333333333334    0.5416666666666667    0.8750000000000000   Cs1401
    0.7083333333333334    0.8750000000000000    0.2083333333333334   Cs1402
    0.7083333333333334    0.8750000000000000    0.5416666666666667   Cs1403
    0.7083333333333334    0.8750000000000000    0.8750000000000000   Cs1404
    0.2083333333333334    0.0416666666666667    0.0416666666666667   Cs1405
    0.2083333333333334    0.0416666666666667    0.3750000000000000   Cs1406
    0.2083333333333334    0.0416666666666667    0.7083333333333334   Cs1407
    0.2083333333333334    0.3750000000000000    0.0416666666666667   Cs1408
    0.2083333333333334    0.3750000000000000    0.3750000000000000   Cs1409
    0.2083333333333334    0.3750000000000000    0.7083333333333334   Cs1410
    0.2083333333333334    0.7083333333333334    0.0416666666666667   Cs1411
    0.2083333333333334    0.7083333333333334    0.3750000000000000   Cs1412
    0.2083333333333334    0.7083333333333334    0.7083333333333334   Cs1413
    0.5416666666666667    0.0416666666666667    0.0416666666666667   Cs1414
    0.5416666666666667    0.0416666666666667    0.3750000000000000   Cs1415
    0.5416666666666667    0.0416666666666667    0.7083333333333334   Cs1416
    0.5416666666666667    0.3750000000000000    0.0416666666666667   Cs1417
    0.5416666666666667    0.3750000000000000    0.3750000000000000   Cs1418
    0.5416666666666667    0.3750000000000000    0.7083333333333334   Cs1419
    0.5416666666666667    0.7083333333333334    0.0416666666666667   Cs1420
    0.5416666666666667    0.7083333333333334    0.3750000000000000   Cs1421
    0.5416666666666667    0.7083333333333334    0.7083333333333334   Cs1422
    0.8750000000000000    0.0416666666666667    0.0416666666666667   Cs1423
    0.8750000000000000    0.0416666666666667    0.3750000000000000   Cs1424
    0.8750000000000000    0.0416666666666667    0.7083333333333334   Cs1425
    0.8750000000000000    0.3750000000000000    0.0416666666666667   Cs1426
    0.8750000000000000    0.3750000000000000    0.3750000000000000   Cs1427
    0.8750000000000000    0.3750000000000000    0.7083333333333334   Cs1428
    0.8750000000000000    0.7083333333333334    0.0416666666666667   Cs1429
    0.8750000000000000    0.7083333333333334    0.3750000000000000   Cs1430
    0.8750000000000000    0.7083333333333334    0.7083333333333334   Cs1431
    0.2083333333333334    0.0416666666666667    0.2083333333333334   Cs1432
    0.2083333333333334    0.0416666666666667    0.5416666666666667   Cs1433
    0.2083333333333334    0.0416666666666667    0.8750000000000000   Cs1434
    0.2083333333333334    0.3750000000000000    0.2083333333333334   Cs1435
    0.2083333333333334    0.3750000000000000    0.5416666666666667   Cs1436
    0.2083333333333334    0.3750000000000000    0.8750000000000000   Cs1437
    0.2083333333333334    0.7083333333333334    0.2083333333333334   Cs1438
    0.2083333333333334    0.7083333333333334    0.5416666666666667   Cs1439
    0.2083333333333334    0.7083333333333334    0.8750000000000000   Cs1440
    0.5416666666666667    0.0416666666666667    0.2083333333333334   Cs1441
    0.5416666666666667    0.0416666666666667    0.5416666666666667   Cs1442
    0.5416666666666667    0.0416666666666667    0.8750000000000000   Cs1443
    0.5416666666666667    0.3750000000000000    0.2083333333333334   Cs1444
    0.5416666666666667    0.3750000000000000    0.5416666666666667   Cs1445
    0.5416666666666667    0.3750000000000000    0.8750000000000000   Cs1446
    0.5416666666666667    0.7083333333333334    0.2083333333333334   Cs1447
    0.5416666666666667    0.7083333333333334    0.5416666666666667   Cs1448
    0.5416666666666667    0.7083333333333334    0.8750000000000000   Cs1449
    0.8750000000000000    0.0416666666666667    0.2083333333333334   Cs1450
    0.8750000000000000    0.0416666666666667    0.5416666666666667   Cs1451
    0.8750000000000000    0.0416666666666667    0.8750000000000000   Cs1452
    0.8750000000000000    0.3750000000000000    0.2083333333333334   Cs1453
    0.8750000000000000    0.3750000000000000    0.5416666666666667   Cs1454
    0.8750000000000000    0.3750000000000000    0.8750000000000000   Cs1455
    0.8750000000000000    0.7083333333333334    0.2083333333333334   Cs1456
    0.8750000000000000    0.7083333333333334    0.5416666666666667   Cs1457
    0.8750000000000000    0.7083333333333334    0.8750000000000000   Cs1458
    0.2083333333333334    0.2083333333333334    0.0416666666666667   Cs1459
    0.2083333333333334    0.2083333333333334    0.3750000000000000   Cs1460
    0.2083333333333334    0.2083333333333334    0.7083333333333334   Cs1461
    0.2083333333333334    0.5416666666666667    0.0416666666666667   Cs1462
    0.2083333333333334    0.5416666666666667    0.3750000000000000   Cs1463
    0.2083333333333334    0.5416666666666667    0.7083333333333334   Cs1464
    0.2083333333333334    0.8750000000000000    0.0416666666666667   Cs1465
    0.2083333333333334    0.8750000000000000    0.3750000000000000   Cs1466
    0.2083333333333334    0.8750000000000000    0.7083333333333334   Cs1467
    0.5416666666666667    0.2083333333333334    0.0416666666666667   Cs1468
    0.5416666666666667    0.2083333333333334    0.3750000000000000   Cs1469
    0.5416666666666667    0.2083333333333334    0.7083333333333334   Cs1470
    0.5416666666666667    0.5416666666666667    0.0416666666666667   Cs1471
    0.5416666666666667    0.5416666666666667    0.3750000000000000   Cs1472
    0.5416666666666667    0.5416666666666667    0.7083333333333334   Cs1473
    0.5416666666666667    0.8750000000000000    0.0416666666666667   Cs1474
    0.5416666666666667    0.8750000000000000    0.3750000000000000   Cs1475
    0.5416666666666667    0.8750000000000000    0.7083333333333334   Cs1476
    0.8750000000000000    0.2083333333333334    0.0416666666666667   Cs1477
    0.8750000000000000    0.2083333333333334    0.3750000000000000   Cs1478
    0.8750000000000000    0.2083333333333334    0.7083333333333334   Cs1479
    0.8750000000000000    0.5416666666666667    0.0416666666666667   Cs1480
    0.8750000000000000    0.5416666666666667    0.3750000000000000   Cs1481
    0.8750000000000000    0.5416666666666667    0.7083333333333334   Cs1482
    0.8750000000000000    0.8750000000000000    0.0416666666666667   Cs1483
    0.8750000000000000    0.8750000000000000    0.3750000000000000   Cs1484
    0.8750000000000000    0.8750000000000000    0.7083333333333334   Cs1485
    0.2083333333333334    0.2083333333333334    0.2083333333333334   Cs1486
    0.2083333333333334    0.2083333333333334    0.5416666666666667   Cs1487
    0.2083333333333334    0.2083333333333334    0.8750000000000000   Cs1488
    0.2083333333333334    0.5416666666666667    0.2083333333333334   Cs1489
    0.2083333333333334    0.5416666666666667    0.5416666666666667   Cs1490
    0.2083333333333334    0.5416666666666667    0.8750000000000000   Cs1491
    0.2083333333333334    0.8750000000000000    0.2083333333333334   Cs1492
    0.2083333333333334    0.8750000000000000    0.5416666666666667   Cs1493
    0.2083333333333334    0.8750000000000000    0.8750000000000000   Cs1494
    0.5416666666666667    0.2083333333333334    0.2083333333333334   Cs1495
    0.5416666666666667    0.2083333333333334    0.5416666666666667   Cs1496
    0.5416666666666667    0.2083333333333334    0.8750000000000000   Cs1497
    0.5416666666666667    0.5416666666666667    0.2083333333333334   Cs1498
    0.5416666666666667    0.5416666666666667    0.5416666666666667   Cs1499
    0.5416666666666667    0.5416666666666667    0.8750000000000000   Cs1500
    0.5416666666666667    0.8750000000000000    0.2083333333333334   Cs1501
    0.5416666666666667    0.8750000000000000    0.5416666666666667   Cs1502
    0.5416666666666667    0.8750000000000000    0.8750000000000000   Cs1503
    0.8750000000000000    0.2083333333333334    0.2083333333333334   Cs1504
    0.8750000000000000    0.2083333333333334    0.5416666666666667   Cs1505
    0.8750000000000000    0.2083333333333334    0.8750000000000000   Cs1506
    0.8750000000000000    0.5416666666666667    0.2083333333333334   Cs1507
    0.8750000000000000    0.5416666666666667    0.5416666666666667   Cs1508
    0.8750000000000000    0.5416666666666667    0.8750000000000000   Cs1509
    0.8750000000000000    0.8750000000000000    0.2083333333333334   Cs1510
    0.8750000000000000    0.8750000000000000    0.5416666666666667   Cs1511
    0.8750000000000000    0.8750000000000000    0.8750000000000000   Cs1512
    0.0416666666666667    0.1250000000000000    0.0416666666666667   Cs1513
    0.0416666666666667    0.1250000000000000    0.3750000000000000   Cs1514
    0.0416666666666667    0.1250000000000000    0.7083333333333334   Cs1515
    0.0416666666666667    0.4583333333333334    0.0416666666666667   Cs1516
    0.0416666666666667    0.4583333333333334    0.3750000000000000   Cs1517
    0.0416666666666667    0.4583333333333334    0.7083333333333334   Cs1518
    0.0416666666666667    0.7916666666666667    0.0416666666666667   Cs1519
    0.0416666666666667    0.7916666666666667    0.3750000000000000   Cs1520
    0.0416666666666667    0.7916666666666667    0.7083333333333334   Cs1521
    0.3750000000000000    0.1250000000000000    0.0416666666666667   Cs1522
    0.3750000000000000    0.1250000000000000    0.3750000000000000   Cs1523
    0.3750000000000000    0.1250000000000000    0.7083333333333334   Cs1524
    0.3750000000000000    0.4583333333333334    0.0416666666666667   Cs1525
    0.3750000000000000    0.4583333333333334    0.3750000000000000   Cs1526
    0.3750000000000000    0.4583333333333334    0.7083333333333334   Cs1527
    0.3750000000000000    0.7916666666666667    0.0416666666666667   Cs1528
    0.3750000000000000    0.7916666666666667    0.3750000000000000   Cs1529
    0.3750000000000000    0.7916666666666667    0.7083333333333334   Cs1530
    0.7083333333333334    0.1250000000000000    0.0416666666666667   Cs1531
    0.7083333333333334    0.1250000000000000    0.3750000000000000   Cs1532
    0.7083333333333334    0.1250000000000000    0.7083333333333334   Cs1533
    0.7083333333333334    0.4583333333333334    0.0416666666666667   Cs1534
    0.7083333333333334    0.4583333333333334    0.3750000000000000   Cs1535
    0.7083333333333334    0.4583333333333334    0.7083333333333334   Cs1536
    0.7083333333333334    0.7916666666666667    0.0416666666666667   Cs1537
    0.7083333333333334    0.7916666666666667    0.3750000000000000   Cs1538
    0.7083333333333334    0.7916666666666667    0.7083333333333334   Cs1539
    0.0416666666666667    0.1250000000000000    0.2083333333333334   Cs1540
    0.0416666666666667    0.1250000000000000    0.5416666666666667   Cs1541
    0.0416666666666667    0.1250000000000000    0.8750000000000000   Cs1542
    0.0416666666666667    0.4583333333333334    0.2083333333333334   Cs1543
    0.0416666666666667    0.4583333333333334    0.5416666666666667   Cs1544
    0.0416666666666667    0.4583333333333334    0.8750000000000000   Cs1545
    0.0416666666666667    0.7916666666666667    0.2083333333333334   Cs1546
    0.0416666666666667    0.7916666666666667    0.5416666666666667   Cs1547
    0.0416666666666667    0.7916666666666667    0.8750000000000000   Cs1548
    0.3750000000000000    0.1250000000000000    0.2083333333333334   Cs1549
    0.3750000000000000    0.1250000000000000    0.5416666666666667   Cs1550
    0.3750000000000000    0.1250000000000000    0.8750000000000000   Cs1551
    0.3750000000000000    0.4583333333333334    0.2083333333333334   Cs1552
    0.3750000000000000    0.4583333333333334    0.5416666666666667   Cs1553
    0.3750000000000000    0.4583333333333334    0.8750000000000000   Cs1554
    0.3750000000000000    0.7916666666666667    0.2083333333333334   Cs1555
    0.3750000000000000    0.7916666666666667    0.5416666666666667   Cs1556
    0.3750000000000000    0.7916666666666667    0.8750000000000000   Cs1557
    0.7083333333333334    0.1250000000000000    0.2083333333333334   Cs1558
    0.7083333333333334    0.1250000000000000    0.5416666666666667   Cs1559
    0.7083333333333334    0.1250000000000000    0.8750000000000000   Cs1560
    0.7083333333333334    0.4583333333333334    0.2083333333333334   Cs1561
    0.7083333333333334    0.4583333333333334    0.5416666666666667   Cs1562
    0.7083333333333334    0.4583333333333334    0.8750000000000000   Cs1563
    0.7083333333333334    0.7916666666666667    0.2083333333333334   Cs1564
    0.7083333333333334    0.7916666666666667    0.5416666666666667   Cs1565
    0.7083333333333334    0.7916666666666667    0.8750000000000000   Cs1566
    0.0416666666666667    0.2916666666666667    0.0416666666666667   Cs1567
    0.0416666666666667    0.2916666666666667    0.3750000000000000   Cs1568
    0.0416666666666667    0.2916666666666667    0.7083333333333334   Cs1569
    0.0416666666666667    0.6250000000000000    0.0416666666666667   Cs1570
    0.0416666666666667    0.6250000000000000    0.3750000000000000   Cs1571
    0.0416666666666667    0.6250000000000000    0.7083333333333334   Cs1572
    0.0416666666666667    0.9583333333333334    0.0416666666666667   Cs1573
    0.0416666666666667    0.9583333333333334    0.3750000000000000   Cs1574
    0.0416666666666667    0.9583333333333334    0.7083333333333334   Cs1575
    0.3750000000000000    0.2916666666666667    0.0416666666666667   Cs1576
    0.3750000000000000    0.2916666666666667    0.3750000000000000   Cs1577
    0.3750000000000000    0.2916666666666667    0.7083333333333334   Cs1578
    0.3750000000000000    0.6250000000000000    0.0416666666666667   Cs1579
    0.3750000000000000    0.6250000000000000    0.3750000000000000   Cs1580
    0.3750000000000000    0.6250000000000000    0.7083333333333334   Cs1581
    0.3750000000000000    0.9583333333333334    0.0416666666666667   Cs1582
    0.3750000000000000    0.9583333333333334    0.3750000000000000   Cs1583
    0.3750000000000000    0.9583333333333334    0.7083333333333334   Cs1584
    0.7083333333333334    0.2916666666666667    0.0416666666666667   Cs1585
    0.7083333333333334    0.2916666666666667    0.3750000000000000   Cs1586
    0.7083333333333334    0.2916666666666667    0.7083333333333334   Cs1587
    0.7083333333333334    0.6250000000000000    0.0416666666666667   Cs1588
    0.7083333333333334    0.6250000000000000    0.3750000000000000   Cs1589
    0.7083333333333334    0.6250000000000000    0.7083333333333334   Cs1590
    0.7083333333333334    0.9583333333333334    0.0416666666666667   Cs1591
    0.7083333333333334    0.9583333333333334    0.3750000000000000   Cs1592
    0.7083333333333334    0.9583333333333334    0.7083333333333334   Cs1593
    0.0416666666666667    0.2916666666666667    0.2083333333333334   Cs1594
    0.0416666666666667    0.2916666666666667    0.5416666666666667   Cs1595
    0.0416666666666667    0.2916666666666667    0.8750000000000000   Cs1596
    0.0416666666666667    0.6250000000000000    0.2083333333333334   Cs1597
    0.0416666666666667    0.6250000000000000    0.5416666666666667   Cs1598
    0.0416666666666667    0.6250000000000000    0.8750000000000000   Cs1599
    0.0416666666666667    0.9583333333333334    0.2083333333333334   Cs1600
    0.0416666666666667    0.9583333333333334    0.5416666666666667   Cs1601
    0.0416666666666667    0.9583333333333334    0.8750000000000000   Cs1602
    0.3750000000000000    0.2916666666666667    0.2083333333333334   Cs1603
    0.3750000000000000    0.2916666666666667    0.5416666666666667   Cs1604
    0.3750000000000000    0.2916666666666667    0.8750000000000000   Cs1605
    0.3750000000000000    0.6250000000000000    0.2083333333333334   Cs1606
    0.3750000000000000    0.6250000000000000    0.5416666666666667   Cs1607
    0.3750000000000000    0.6250000000000000    0.8750000000000000   Cs1608
    0.3750000000000000    0.9583333333333334    0.2083333333333334   Cs1609
    0.3750000000000000    0.9583333333333334    0.5416666666666667   Cs1610
    0.3750000000000000    0.9583333333333334    0.8750000000000000   Cs1611
    0.7083333333333334    0.2916666666666667    0.2083333333333334   Cs1612
    0.7083333333333334    0.2916666666666667    0.5416666666666667   Cs1613
    0.7083333333333334    0.2916666666666667    0.8750000000000000   Cs1614
    0.7083333333333334    0.6250000000000000    0.2083333333333334   Cs1615
    0.7083333333333334    0.6250000000000000    0.5416666666666667   Cs1616
    0.7083333333333334    0.6250000000000000    0.8750000000000000   Cs1617
    0.7083333333333334    0.9583333333333334    0.2083333333333334   Cs1618
    0.7083333333333334    0.9583333333333334    0.5416666666666667   Cs1619
    0.7083333333333334    0.9583333333333334    0.8750000000000000   Cs1620
    0.2083333333333334    0.1250000000000000    0.0416666666666667   Cs1621
    0.2083333333333334    0.1250000000000000    0.3750000000000000   Cs1622
    0.2083333333333334    0.1250000000000000    0.7083333333333334   Cs1623
    0.2083333333333334    0.4583333333333334    0.0416666666666667   Cs1624
    0.2083333333333334    0.4583333333333334    0.3750000000000000   Cs1625
    0.2083333333333334    0.4583333333333334    0.7083333333333334   Cs1626
    0.2083333333333334    0.7916666666666667    0.0416666666666667   Cs1627
    0.2083333333333334    0.7916666666666667    0.3750000000000000   Cs1628
    0.2083333333333334    0.7916666666666667    0.7083333333333334   Cs1629
    0.5416666666666667    0.1250000000000000    0.0416666666666667   Cs1630
    0.5416666666666667    0.1250000000000000    0.3750000000000000   Cs1631
    0.5416666666666667    0.1250000000000000    0.7083333333333334   Cs1632
    0.5416666666666667    0.4583333333333334    0.0416666666666667   Cs1633
    0.5416666666666667    0.4583333333333334    0.3750000000000000   Cs1634
    0.5416666666666667    0.4583333333333334    0.7083333333333334   Cs1635
    0.5416666666666667    0.7916666666666667    0.0416666666666667   Cs1636
    0.5416666666666667    0.7916666666666667    0.3750000000000000   Cs1637
    0.5416666666666667    0.7916666666666667    0.7083333333333334   Cs1638
    0.8750000000000000    0.1250000000000000    0.0416666666666667   Cs1639
    0.8750000000000000    0.1250000000000000    0.3750000000000000   Cs1640
    0.8750000000000000    0.1250000000000000    0.7083333333333334   Cs1641
    0.8750000000000000    0.4583333333333334    0.0416666666666667   Cs1642
    0.8750000000000000    0.4583333333333334    0.3750000000000000   Cs1643
    0.8750000000000000    0.4583333333333334    0.7083333333333334   Cs1644
    0.8750000000000000    0.7916666666666667    0.0416666666666667   Cs1645
    0.8750000000000000    0.7916666666666667    0.3750000000000000   Cs1646
    0.8750000000000000    0.7916666666666667    0.7083333333333334   Cs1647
    0.2083333333333334    0.1250000000000000    0.2083333333333334   Cs1648
    0.2083333333333334    0.1250000000000000    0.5416666666666667   Cs1649
    0.2083333333333334    0.1250000000000000    0.8750000000000000   Cs1650
    0.2083333333333334    0.4583333333333334    0.2083333333333334   Cs1651
    0.2083333333333334    0.4583333333333334    0.5416666666666667   Cs1652
    0.2083333333333334    0.4583333333333334    0.8750000000000000   Cs1653
    0.2083333333333334    0.7916666666666667    0.2083333333333334   Cs1654
    0.2083333333333334    0.7916666666666667    0.5416666666666667   Cs1655
    0.2083333333333334    0.7916666666666667    0.8750000000000000   Cs1656
    0.5416666666666667    0.1250000000000000    0.2083333333333334   Cs1657
    0.5416666666666667    0.1250000000000000    0.5416666666666667   Cs1658
    0.5416666666666667    0.1250000000000000    0.8750000000000000   Cs1659
    0.5416666666666667    0.4583333333333334    0.2083333333333334   Cs1660
    0.5416666666666667    0.4583333333333334    0.5416666666666667   Cs1661
    0.5416666666666667    0.4583333333333334    0.8750000000000000   Cs1662
    0.5416666666666667    0.7916666666666667    0.2083333333333334   Cs1663
    0.5416666666666667    0.7916666666666667    0.5416666666666667   Cs1664
    0.5416666666666667    0.7916666666666667    0.8750000000000000   Cs1665
    0.8750000000000000    0.1250000000000000    0.2083333333333334   Cs1666
    0.8750000000000000    0.1250000000000000    0.5416666666666667   Cs1667
    0.8750000000000000    0.1250000000000000    0.8750000000000000   Cs1668
    0.8750000000000000    0.4583333333333334    0.2083333333333334   Cs1669
    0.8750000000000000    0.4583333333333334    0.5416666666666667   Cs1670
    0.8750000000000000    0.4583333333333334    0.8750000000000000   Cs1671
    0.8750000000000000    0.7916666666666667    0.2083333333333334   Cs1672
    0.8750000000000000    0.7916666666666667    0.5416666666666667   Cs1673
    0.8750000000000000    0.7916666666666667    0.8750000000000000   Cs1674
    0.2083333333333334    0.2916666666666667    0.0416666666666667   Cs1675
    0.2083333333333334    0.2916666666666667    0.3750000000000000   Cs1676
    0.2083333333333334    0.2916666666666667    0.7083333333333334   Cs1677
    0.2083333333333334    0.6250000000000000    0.0416666666666667   Cs1678
    0.2083333333333334    0.6250000000000000    0.3750000000000000   Cs1679
    0.2083333333333334    0.6250000000000000    0.7083333333333334   Cs1680
    0.2083333333333334    0.9583333333333334    0.0416666666666667   Cs1681
    0.2083333333333334    0.9583333333333334    0.3750000000000000   Cs1682
    0.2083333333333334    0.9583333333333334    0.7083333333333334   Cs1683
    0.5416666666666667    0.2916666666666667    0.0416666666666667   Cs1684
    0.5416666666666667    0.2916666666666667    0.3750000000000000   Cs1685
    0.5416666666666667    0.2916666666666667    0.7083333333333334   Cs1686
    0.5416666666666667    0.6250000000000000    0.0416666666666667   Cs1687
    0.5416666666666667    0.6250000000000000    0.3750000000000000   Cs1688
    0.5416666666666667    0.6250000000000000    0.7083333333333334   Cs1689
    0.5416666666666667    0.9583333333333334    0.0416666666666667   Cs1690
    0.5416666666666667    0.9583333333333334    0.3750000000000000   Cs1691
    0.5416666666666667    0.9583333333333334    0.7083333333333334   Cs1692
    0.8750000000000000    0.2916666666666667    0.0416666666666667   Cs1693
    0.8750000000000000    0.2916666666666667    0.3750000000000000   Cs1694
    0.8750000000000000    0.2916666666666667    0.7083333333333334   Cs1695
    0.8750000000000000    0.6250000000000000    0.0416666666666667   Cs1696
    0.8750000000000000    0.6250000000000000    0.3750000000000000   Cs1697
    0.8750000000000000    0.6250000000000000    0.7083333333333334   Cs1698
    0.8750000000000000    0.9583333333333334    0.0416666666666667   Cs1699
    0.8750000000000000    0.9583333333333334    0.3750000000000000   Cs1700
    0.8750000000000000    0.9583333333333334    0.7083333333333334   Cs1701
    0.2083333333333334    0.2916666666666667    0.2083333333333334   Cs1702
    0.2083333333333334    0.2916666666666667    0.5416666666666667   Cs1703
    0.2083333333333334    0.2916666666666667    0.8750000000000000   Cs1704
    0.2083333333333334    0.6250000000000000    0.2083333333333334   Cs1705
    0.2083333333333334    0.6250000000000000    0.5416666666666667   Cs1706
    0.2083333333333334    0.6250000000000000    0.8750000000000000   Cs1707
    0.2083333333333334    0.9583333333333334    0.2083333333333334   Cs1708
    0.2083333333333334    0.9583333333333334    0.5416666666666667   Cs1709
    0.2083333333333334    0.9583333333333334    0.8750000000000000   Cs1710
    0.5416666666666667    0.2916666666666667    0.2083333333333334   Cs1711
    0.5416666666666667    0.2916666666666667    0.5416666666666667   Cs1712
    0.5416666666666667    0.2916666666666667    0.8750000000000000   Cs1713
    0.5416666666666667    0.6250000000000000    0.2083333333333334   Cs1714
    0.5416666666666667    0.6250000000000000    0.5416666666666667   Cs1715
    0.5416666666666667    0.6250000000000000    0.8750000000000000   Cs1716
    0.5416666666666667    0.9583333333333334    0.2083333333333334   Cs1717
    0.5416666666666667    0.9583333333333334    0.5416666666666667   Cs1718
    0.5416666666666667    0.9583333333333334    0.8750000000000000   Cs1719
    0.8750000000000000    0.2916666666666667    0.2083333333333334   Cs1720
    0.8750000000000000    0.2916666666666667    0.5416666666666667   Cs1721
    0.8750000000000000    0.2916666666666667    0.8750000000000000   Cs1722
    0.8750000000000000    0.6250000000000000    0.2083333333333334   Cs1723
    0.8750000000000000    0.6250000000000000    0.5416666666666667   Cs1724
    0.8750000000000000    0.6250000000000000    0.8750000000000000   Cs1725
    0.8750000000000000    0.9583333333333334    0.2083333333333334   Cs1726
    0.8750000000000000    0.9583333333333334    0.5416666666666667   Cs1727
    0.8750000000000000    0.9583333333333334    0.8750000000000000   Cs1728
    0.0000000000000000    0.0000000000000000    0.0000000000000000    Sn001
    0.0000000000000000    0.0000000000000000    0.3333333333333334    Sn002
    0.0000000000000000    0.0000000000000000    0.6666666666666667    Sn003
    0.0000000000000000    0.3333333333333334    0.0000000000000000    Sn004
    0.0000000000000000    0.3333333333333334    0.3333333333333334    Sn005
    0.0000000000000000    0.3333333333333334    0.6666666666666667    Sn006
    0.0000000000000000    0.6666666666666667    0.0000000000000000    Sn007
    0.0000000000000000    0.6666666666666667    0.3333333333333334    Sn008
    0.0000000000000000    0.6666666666666667    0.6666666666666667    Sn009
    0.3333333333333334    0.0000000000000000    0.0000000000000000    Sn010
    0.3333333333333334    0.0000000000000000    0.3333333333333334    Sn011
    0.3333333333333334    0.0000000000000000    0.6666666666666667    Sn012
    0.3333333333333334    0.3333333333333334    0.0000000000000000    Sn013
    0.3333333333333334    0.3333333333333334    0.3333333333333334    Sn014
    0.3333333333333334    0.3333333333333334    0.6666666666666667    Sn015
    0.3333333333333334    0.6666666666666667    0.0000000000000000    Sn016
    0.3333333333333334    0.6666666666666667    0.3333333333333334    Sn017
    0.3333333333333334    0.6666666666666667    0.6666666666666667    Sn018
    0.6666666666666667    0.0000000000000000    0.0000000000000000    Sn019
    0.6666666666666667    0.0000000000000000    0.3333333333333334    Sn020
    0.6666666666666667    0.0000000000000000    0.6666666666666667    Sn021
    0.6666666666666667    0.3333333333333334    0.0000000000000000    Sn022
    0.6666666666666667    0.3333333333333334    0.3333333333333334    Sn023
    0.6666666666666667    0.3333333333333334    0.6666666666666667    Sn024
    0.6666666666666667    0.6666666666666667    0.0000000000000000    Sn025
    0.6666666666666667    0.6666666666666667    0.3333333333333334    Sn026
    0.6666666666666667    0.6666666666666667    0.6666666666666667    Sn027
    0.0000000000000000    0.0000000000000000    0.1666666666666667    Sn028
    0.0000000000000000    0.0000000000000000    0.5000000000000000    Sn029
    0.0000000000000000    0.0000000000000000    0.8333333333333334    Sn030
    0.0000000000000000    0.3333333333333334    0.1666666666666667    Sn031
    0.0000000000000000    0.3333333333333334    0.5000000000000000    Sn032
    0.0000000000000000    0.3333333333333334    0.8333333333333334    Sn033
    0.0000000000000000    0.6666666666666667    0.1666666666666667    Sn034
    0.0000000000000000    0.6666666666666667    0.5000000000000000    Sn035
    0.0000000000000000    0.6666666666666667    0.8333333333333334    Sn036
    0.3333333333333334    0.0000000000000000    0.1666666666666667    Sn037
    0.3333333333333334    0.0000000000000000    0.5000000000000000    Sn038
    0.3333333333333334    0.0000000000000000    0.8333333333333334    Sn039
    0.3333333333333334    0.3333333333333334    0.1666666666666667    Sn040
    0.3333333333333334    0.3333333333333334    0.5000000000000000    Sn041
    0.3333333333333334    0.3333333333333334    0.8333333333333334    Sn042
    0.3333333333333334    0.6666666666666667    0.1666666666666667    Sn043
    0.3333333333333334    0.6666666666666667    0.5000000000000000    Sn044
    0.3333333333333334    0.6666666666666667    0.8333333333333334    Sn045
    0.6666666666666667    0.0000000000000000    0.1666666666666667    Sn046
    0.6666666666666667    0.0000000000000000    0.5000000000000000    Sn047
    0.6666666666666667    0.0000000000000000    0.8333333333333334    Sn048
    0.6666666666666667    0.3333333333333334    0.1666666666666667    Sn049
    0.6666666666666667    0.3333333333333334    0.5000000000000000    Sn050
    0.6666666666666667    0.3333333333333334    0.8333333333333334    Sn051
    0.6666666666666667    0.6666666666666667    0.1666666666666667    Sn052
    0.6666666666666667    0.6666666666666667    0.5000000000000000    Sn053
    0.6666666666666667    0.6666666666666667    0.8333333333333334    Sn054
    0.0000000000000000    0.1666666666666667    0.0000000000000000    Sn055
    0.0000000000000000    0.1666666666666667    0.3333333333333334    Sn056
    0.0000000000000000    0.1666666666666667    0.6666666666666667    Sn057
    0.0000000000000000    0.5000000000000000    0.0000000000000000    Sn058
    0.0000000000000000    0.5000000000000000    0.3333333333333334    Sn059
    0.0000000000000000    0.5000000000000000    0.6666666666666667    Sn060
    0.0000000000000000    0.8333333333333334    0.0000000000000000    Sn061
    0.0000000000000000    0.8333333333333334    0.3333333333333334    Sn062
    0.0000000000000000    0.8333333333333334    0.6666666666666667    Sn063
    0.3333333333333334    0.1666666666666667    0.0000000000000000    Sn064
    0.3333333333333334    0.1666666666666667    0.3333333333333334    Sn065
    0.3333333333333334    0.1666666666666667    0.6666666666666667    Sn066
    0.3333333333333334    0.5000000000000000    0.0000000000000000    Sn067
    0.3333333333333334    0.5000000000000000    0.3333333333333334    Sn068
    0.3333333333333334    0.5000000000000000    0.6666666666666667    Sn069
    0.3333333333333334    0.8333333333333334    0.0000000000000000    Sn070
    0.3333333333333334    0.8333333333333334    0.3333333333333334    Sn071
    0.3333333333333334    0.8333333333333334    0.6666666666666667    Sn072
    0.6666666666666667    0.1666666666666667    0.0000000000000000    Sn073
    0.6666666666666667    0.1666666666666667    0.3333333333333334    Sn074
    0.6666666666666667    0.1666666666666667    0.6666666666666667    Sn075
    0.6666666666666667    0.5000000000000000    0.0000000000000000    Sn076
    0.6666666666666667    0.5000000000000000    0.3333333333333334    Sn077
    0.6666666666666667    0.5000000000000000    0.6666666666666667    Sn078
    0.6666666666666667    0.8333333333333334    0.0000000000000000    Sn079
    0.6666666666666667    0.8333333333333334    0.3333333333333334    Sn080
    0.6666666666666667    0.8333333333333334    0.6666666666666667    Sn081
    0.0000000000000000    0.1666666666666667    0.1666666666666667    Sn082
    0.0000000000000000    0.1666666666666667    0.5000000000000000    Sn083
    0.0000000000000000    0.1666666666666667    0.8333333333333334    Sn084
    0.0000000000000000    0.5000000000000000    0.1666666666666667    Sn085
    0.0000000000000000    0.5000000000000000    0.5000000000000000    Sn086
    0.0000000000000000    0.5000000000000000    0.8333333333333334    Sn087
    0.0000000000000000    0.8333333333333334    0.1666666666666667    Sn088
    0.0000000000000000    0.8333333333333334    0.5000000000000000    Sn089
    0.0000000000000000    0.8333333333333334    0.8333333333333334    Sn090
    0.3333333333333334    0.1666666666666667    0.1666666666666667    Sn091
    0.3333333333333334    0.1666666666666667    0.5000000000000000    Sn092
    0.3333333333333334    0.1666666666666667    0.8333333333333334    Sn093
    0.3333333333333334    0.5000000000000000    0.1666666666666667    Sn094
    0.3333333333333334    0.5000000000000000    0.5000000000000000    Sn095
    0.3333333333333334    0.5000000000000000    0.8333333333333334    Sn096
    0.3333333333333334    0.8333333333333334    0.1666666666666667    Sn097
    0.3333333333333334    0.8333333333333334    0.5000000000000000    Sn098
    0.3333333333333334    0.8333333333333334    0.8333333333333334    Sn099
    0.6666666666666667    0.1666666666666667    0.1666666666666667    Sn100
    0.6666666666666667    0.1666666666666667    0.5000000000000000    Sn101
    0.6666666666666667    0.1666666666666667    0.8333333333333334    Sn102
    0.6666666666666667    0.5000000000000000    0.1666666666666667    Sn103
    0.6666666666666667    0.5000000000000000    0.5000000000000000    Sn104
    0.6666666666666667    0.5000000000000000    0.8333333333333334    Sn105
    0.6666666666666667    0.8333333333333334    0.1666666666666667    Sn106
    0.6666666666666667    0.8333333333333334    0.5000000000000000    Sn107
    0.6666666666666667    0.8333333333333334    0.8333333333333334    Sn108
    0.1666666666666667    0.0000000000000000    0.0000000000000000    Sn109
    0.1666666666666667    0.0000000000000000    0.3333333333333334    Sn110
    0.1666666666666667    0.0000000000000000    0.6666666666666667    Sn111
    0.1666666666666667    0.3333333333333334    0.0000000000000000    Sn112
    0.1666666666666667    0.3333333333333334    0.3333333333333334    Sn113
    0.1666666666666667    0.3333333333333334    0.6666666666666667    Sn114
    0.1666666666666667    0.6666666666666667    0.0000000000000000    Sn115
    0.1666666666666667    0.6666666666666667    0.3333333333333334    Sn116
    0.1666666666666667    0.6666666666666667    0.6666666666666667    Sn117
    0.5000000000000000    0.0000000000000000    0.0000000000000000    Sn118
    0.5000000000000000    0.0000000000000000    0.3333333333333334    Sn119
    0.5000000000000000    0.0000000000000000    0.6666666666666667    Sn120
    0.5000000000000000    0.3333333333333334    0.0000000000000000    Sn121
    0.5000000000000000    0.3333333333333334    0.3333333333333334    Sn122
    0.5000000000000000    0.3333333333333334    0.6666666666666667    Sn123
    0.5000000000000000    0.6666666666666667    0.0000000000000000    Sn124
    0.5000000000000000    0.6666666666666667    0.3333333333333334    Sn125
    0.5000000000000000    0.6666666666666667    0.6666666666666667    Sn126
    0.8333333333333334    0.0000000000000000    0.0000000000000000    Sn127
    0.8333333333333334    0.0000000000000000    0.3333333333333334    Sn128
    0.8333333333333334    0.0000000000000000    0.6666666666666667    Sn129
    0.8333333333333334    0.3333333333333334    0.0000000000000000    Sn130
    0.8333333333333334    0.3333333333333334    0.3333333333333334    Sn131
    0.8333333333333334    0.3333333333333334    0.6666666666666667    Sn132
    0.8333333333333334    0.6666666666666667    0.0000000000000000    Sn133
    0.8333333333333334    0.6666666666666667    0.3333333333333334    Sn134
    0.8333333333333334    0.6666666666666667    0.6666666666666667    Sn135
    0.1666666666666667    0.0000000000000000    0.1666666666666667    Sn136
    0.1666666666666667    0.0000000000000000    0.5000000000000000    Sn137
    0.1666666666666667    0.0000000000000000    0.8333333333333334    Sn138
    0.1666666666666667    0.3333333333333334    0.1666666666666667    Sn139
    0.1666666666666667    0.3333333333333334    0.5000000000000000    Sn140
    0.1666666666666667    0.3333333333333334    0.8333333333333334    Sn141
    0.1666666666666667    0.6666666666666667    0.1666666666666667    Sn142
    0.1666666666666667    0.6666666666666667    0.5000000000000000    Sn143
    0.1666666666666667    0.6666666666666667    0.8333333333333334    Sn144
    0.5000000000000000    0.0000000000000000    0.1666666666666667    Sn145
    0.5000000000000000    0.0000000000000000    0.5000000000000000    Sn146
    0.5000000000000000    0.0000000000000000    0.8333333333333334    Sn147
    0.5000000000000000    0.3333333333333334    0.1666666666666667    Sn148
    0.5000000000000000    0.3333333333333334    0.5000000000000000    Sn149
    0.5000000000000000    0.3333333333333334    0.8333333333333334    Sn150
    0.5000000000000000    0.6666666666666667    0.1666666666666667    Sn151
    0.5000000000000000    0.6666666666666667    0.5000000000000000    Sn152
    0.5000000000000000    0.6666666666666667    0.8333333333333334    Sn153
    0.8333333333333334    0.0000000000000000    0.1666666666666667    Sn154
    0.8333333333333334    0.0000000000000000    0.5000000000000000    Sn155
    0.8333333333333334    0.0000000000000000    0.8333333333333334    Sn156
    0.8333333333333334    0.3333333333333334    0.1666666666666667    Sn157
    0.8333333333333334    0.3333333333333334    0.5000000000000000    Sn158
    0.8333333333333334    0.3333333333333334    0.8333333333333334    Sn159
    0.8333333333333334    0.6666666666666667    0.1666666666666667    Sn160
    0.8333333333333334    0.6666666666666667    0.5000000000000000    Sn161
    0.8333333333333334    0.6666666666666667    0.8333333333333334    Sn162
    0.1666666666666667    0.1666666666666667    0.0000000000000000    Sn163
    0.1666666666666667    0.1666666666666667    0.3333333333333334    Sn164
    0.1666666666666667    0.1666666666666667    0.6666666666666667    Sn165
    0.1666666666666667    0.5000000000000000    0.0000000000000000    Sn166
    0.1666666666666667    0.5000000000000000    0.3333333333333334    Sn167
    0.1666666666666667    0.5000000000000000    0.6666666666666667    Sn168
    0.1666666666666667    0.8333333333333334    0.0000000000000000    Sn169
    0.1666666666666667    0.8333333333333334    0.3333333333333334    Sn170
    0.1666666666666667    0.8333333333333334    0.6666666666666667    Sn171
    0.5000000000000000    0.1666666666666667    0.0000000000000000    Sn172
    0.5000000000000000    0.1666666666666667    0.3333333333333334    Sn173
    0.5000000000000000    0.1666666666666667    0.6666666666666667    Sn174
    0.5000000000000000    0.5000000000000000    0.0000000000000000    Sn175
    0.5000000000000000    0.5000000000000000    0.3333333333333334    Sn176
    0.5000000000000000    0.5000000000000000    0.6666666666666667    Sn177
    0.5000000000000000    0.8333333333333334    0.0000000000000000    Sn178
    0.5000000000000000    0.8333333333333334    0.3333333333333334    Sn179
    0.5000000000000000    0.8333333333333334    0.6666666666666667    Sn180
    0.8333333333333334    0.1666666666666667    0.0000000000000000    Sn181
    0.8333333333333334    0.1666666666666667    0.3333333333333334    Sn182
    0.8333333333333334    0.1666666666666667    0.6666666666666667    Sn183
    0.8333333333333334    0.5000000000000000    0.0000000000000000    Sn184
    0.8333333333333334    0.5000000000000000    0.3333333333333334    Sn185
    0.8333333333333334    0.5000000000000000    0.6666666666666667    Sn186
    0.8333333333333334    0.8333333333333334    0.0000000000000000    Sn187
    0.8333333333333334    0.8333333333333334    0.3333333333333334    Sn188
    0.8333333333333334    0.8333333333333334    0.6666666666666667    Sn189
    0.1666666666666667    0.1666666666666667    0.1666666666666667    Sn190
    0.1666666666666667    0.1666666666666667    0.5000000000000000    Sn191
    0.1666666666666667    0.1666666666666667    0.8333333333333334    Sn192
    0.1666666666666667    0.5000000000000000    0.1666666666666667    Sn193
    0.1666666666666667    0.5000000000000000    0.5000000000000000    Sn194
    0.1666666666666667    0.5000000000000000    0.8333333333333334    Sn195
    0.1666666666666667    0.8333333333333334    0.1666666666666667    Sn196
    0.1666666666666667    0.8333333333333334    0.5000000000000000    Sn197
    0.1666666666666667    0.8333333333333334    0.8333333333333334    Sn198
    0.5000000000000000    0.1666666666666667    0.1666666666666667    Sn199
    0.5000000000000000    0.1666666666666667    0.5000000000000000    Sn200
    0.5000000000000000    0.1666666666666667    0.8333333333333334    Sn201
    0.5000000000000000    0.5000000000000000    0.1666666666666667    Sn202
    0.5000000000000000    0.5000000000000000    0.5000000000000000    Sn203
    0.5000000000000000    0.5000000000000000    0.8333333333333334    Sn204
    0.5000000000000000    0.8333333333333334    0.1666666666666667    Sn205
    0.5000000000000000    0.8333333333333334    0.5000000000000000    Sn206
    0.5000000000000000    0.8333333333333334    0.8333333333333334    Sn207
    0.8333333333333334    0.1666666666666667    0.1666666666666667    Sn208
    0.8333333333333334    0.1666666666666667    0.5000000000000000    Sn209
    0.8333333333333334    0.1666666666666667    0.8333333333333334    Sn210
    0.8333333333333334    0.5000000000000000    0.1666666666666667    Sn211
    0.8333333333333334    0.5000000000000000    0.5000000000000000    Sn212
    0.8333333333333334    0.5000000000000000    0.8333333333333334    Sn213
    0.8333333333333334    0.8333333333333334    0.1666666666666667    Sn214
    0.8333333333333334    0.8333333333333334    0.5000000000000000    Sn215
    0.8333333333333334    0.8333333333333334    0.8333333333333334    Sn216
    0.0000000000000000    0.0833333333333334    0.0833333333333334    Sn217
    0.0000000000000000    0.0833333333333334    0.4166666666666667    Sn218
    0.0000000000000000    0.0833333333333334    0.7500000000000000    Sn219
    0.0000000000000000    0.4166666666666667    0.0833333333333334    Sn220
    0.0000000000000000    0.4166666666666667    0.4166666666666667    Sn221
    0.0000000000000000    0.4166666666666667    0.7500000000000000    Sn222
    0.0000000000000000    0.7500000000000000    0.0833333333333334    Sn223
    0.0000000000000000    0.7500000000000000    0.4166666666666667    Sn224
    0.0000000000000000    0.7500000000000000    0.7500000000000000    Sn225
    0.3333333333333334    0.0833333333333334    0.0833333333333334    Sn226
    0.3333333333333334    0.0833333333333334    0.4166666666666667    Sn227
    0.3333333333333334    0.0833333333333334    0.7500000000000000    Sn228
    0.3333333333333334    0.4166666666666667    0.0833333333333334    Sn229
    0.3333333333333334    0.4166666666666667    0.4166666666666667    Sn230
    0.3333333333333334    0.4166666666666667    0.7500000000000000    Sn231
    0.3333333333333334    0.7500000000000000    0.0833333333333334    Sn232
    0.3333333333333334    0.7500000000000000    0.4166666666666667    Sn233
    0.3333333333333334    0.7500000000000000    0.7500000000000000    Sn234
    0.6666666666666667    0.0833333333333334    0.0833333333333334    Sn235
    0.6666666666666667    0.0833333333333334    0.4166666666666667    Sn236
    0.6666666666666667    0.0833333333333334    0.7500000000000000    Sn237
    0.6666666666666667    0.4166666666666667    0.0833333333333334    Sn238
    0.6666666666666667    0.4166666666666667    0.4166666666666667    Sn239
    0.6666666666666667    0.4166666666666667    0.7500000000000000    Sn240
    0.6666666666666667    0.7500000000000000    0.0833333333333334    Sn241
    0.6666666666666667    0.7500000000000000    0.4166666666666667    Sn242
    0.6666666666666667    0.7500000000000000    0.7500000000000000    Sn243
    0.0000000000000000    0.0833333333333334    0.2500000000000000    Sn244
    0.0000000000000000    0.0833333333333334    0.5833333333333334    Sn245
    0.0000000000000000    0.0833333333333334    0.9166666666666666    Sn246
    0.0000000000000000    0.4166666666666667    0.2500000000000000    Sn247
    0.0000000000000000    0.4166666666666667    0.5833333333333334    Sn248
    0.0000000000000000    0.4166666666666667    0.9166666666666666    Sn249
    0.0000000000000000    0.7500000000000000    0.2500000000000000    Sn250
    0.0000000000000000    0.7500000000000000    0.5833333333333334    Sn251
    0.0000000000000000    0.7500000000000000    0.9166666666666666    Sn252
    0.3333333333333334    0.0833333333333334    0.2500000000000000    Sn253
    0.3333333333333334    0.0833333333333334    0.5833333333333334    Sn254
    0.3333333333333334    0.0833333333333334    0.9166666666666666    Sn255
    0.3333333333333334    0.4166666666666667    0.2500000000000000    Sn256
    0.3333333333333334    0.4166666666666667    0.5833333333333334    Sn257
    0.3333333333333334    0.4166666666666667    0.9166666666666666    Sn258
    0.3333333333333334    0.7500000000000000    0.2500000000000000    Sn259
    0.3333333333333334    0.7500000000000000    0.5833333333333334    Sn260
    0.3333333333333334    0.7500000000000000    0.9166666666666666    Sn261
    0.6666666666666667    0.0833333333333334    0.2500000000000000    Sn262
    0.6666666666666667    0.0833333333333334    0.5833333333333334    Sn263
    0.6666666666666667    0.0833333333333334    0.9166666666666666    Sn264
    0.6666666666666667    0.4166666666666667    0.2500000000000000    Sn265
    0.6666666666666667    0.4166666666666667    0.5833333333333334    Sn266
    0.6666666666666667    0.4166666666666667    0.9166666666666666    Sn267
    0.6666666666666667    0.7500000000000000    0.2500000000000000    Sn268
    0.6666666666666667    0.7500000000000000    0.5833333333333334    Sn269
    0.6666666666666667    0.7500000000000000    0.9166666666666666    Sn270
    0.0000000000000000    0.2500000000000000    0.0833333333333334    Sn271
    0.0000000000000000    0.2500000000000000    0.4166666666666667    Sn272
    0.0000000000000000    0.2500000000000000    0.7500000000000000    Sn273
    0.0000000000000000    0.5833333333333334    0.0833333333333334    Sn274
    0.0000000000000000    0.5833333333333334    0.4166666666666667    Sn275
    0.0000000000000000    0.5833333333333334    0.7500000000000000    Sn276
    0.0000000000000000    0.9166666666666666    0.0833333333333334    Sn277
    0.0000000000000000    0.9166666666666666    0.4166666666666667    Sn278
    0.0000000000000000    0.9166666666666666    0.7500000000000000    Sn279
    0.3333333333333334    0.2500000000000000    0.0833333333333334    Sn280
    0.3333333333333334    0.2500000000000000    0.4166666666666667    Sn281
    0.3333333333333334    0.2500000000000000    0.7500000000000000    Sn282
    0.3333333333333334    0.5833333333333334    0.0833333333333334    Sn283
    0.3333333333333334    0.5833333333333334    0.4166666666666667    Sn284
    0.3333333333333334    0.5833333333333334    0.7500000000000000    Sn285
    0.3333333333333334    0.9166666666666666    0.0833333333333334    Sn286
    0.3333333333333334    0.9166666666666666    0.4166666666666667    Sn287
    0.3333333333333334    0.9166666666666666    0.7500000000000000    Sn288
    0.6666666666666667    0.2500000000000000    0.0833333333333334    Sn289
    0.6666666666666667    0.2500000000000000    0.4166666666666667    Sn290
    0.6666666666666667    0.2500000000000000    0.7500000000000000    Sn291
    0.6666666666666667    0.5833333333333334    0.0833333333333334    Sn292
    0.6666666666666667    0.5833333333333334    0.4166666666666667    Sn293
    0.6666666666666667    0.5833333333333334    0.7500000000000000    Sn294
    0.6666666666666667    0.9166666666666666    0.0833333333333334    Sn295
    0.6666666666666667    0.9166666666666666    0.4166666666666667    Sn296
    0.6666666666666667    0.9166666666666666    0.7500000000000000    Sn297
    0.0000000000000000    0.2500000000000000    0.2500000000000000    Sn298
    0.0000000000000000    0.2500000000000000    0.5833333333333334    Sn299
    0.0000000000000000    0.2500000000000000    0.9166666666666666    Sn300
    0.0000000000000000    0.5833333333333334    0.2500000000000000    Sn301
    0.0000000000000000    0.5833333333333334    0.5833333333333334    Sn302
    0.0000000000000000    0.5833333333333334    0.9166666666666666    Sn303
    0.0000000000000000    0.9166666666666666    0.2500000000000000    Sn304
    0.0000000000000000    0.9166666666666666    0.5833333333333334    Sn305
    0.0000000000000000    0.9166666666666666    0.9166666666666666    Sn306
    0.3333333333333334    0.2500000000000000    0.2500000000000000    Sn307
    0.3333333333333334    0.2500000000000000    0.5833333333333334    Sn308
    0.3333333333333334    0.2500000000000000    0.9166666666666666    Sn309
    0.3333333333333334    0.5833333333333334    0.2500000000000000    Sn310
    0.3333333333333334    0.5833333333333334    0.5833333333333334    Sn311
    0.3333333333333334    0.5833333333333334    0.9166666666666666    Sn312
    0.3333333333333334    0.9166666666666666    0.2500000000000000    Sn313
    0.3333333333333334    0.9166666666666666    0.5833333333333334    Sn314
    0.3333333333333334    0.9166666666666666    0.9166666666666666    Sn315
    0.6666666666666667    0.2500000000000000    0.2500000000000000    Sn316
    0.6666666666666667    0.2500000000000000    0.5833333333333334    Sn317
    0.6666666666666667    0.2500000000000000    0.9166666666666666    Sn318
    0.6666666666666667    0.5833333333333334    0.2500000000000000    Sn319
    0.6666666666666667    0.5833333333333334    0.5833333333333334    Sn320
    0.6666666666666667    0.5833333333333334    0.9166666666666666    Sn321
    0.6666666666666667    0.9166666666666666    0.2500000000000000    Sn322
    0.6666666666666667    0.9166666666666666    0.5833333333333334    Sn323
    0.6666666666666667    0.9166666666666666    0.9166666666666666    Sn324
    0.1666666666666667    0.0833333333333334    0.0833333333333334    Sn325
    0.1666666666666667    0.0833333333333334    0.4166666666666667    Sn326
    0.1666666666666667    0.0833333333333334    0.7500000000000000    Sn327
    0.1666666666666667    0.4166666666666667    0.0833333333333334    Sn328
    0.1666666666666667    0.4166666666666667    0.4166666666666667    Sn329
    0.1666666666666667    0.4166666666666667    0.7500000000000000    Sn330
    0.1666666666666667    0.7500000000000000    0.0833333333333334    Sn331
    0.1666666666666667    0.7500000000000000    0.4166666666666667    Sn332
    0.1666666666666667    0.7500000000000000    0.7500000000000000    Sn333
    0.5000000000000000    0.0833333333333334    0.0833333333333334    Sn334
    0.5000000000000000    0.0833333333333334    0.4166666666666667    Sn335
    0.5000000000000000    0.0833333333333334    0.7500000000000000    Sn336
    0.5000000000000000    0.4166666666666667    0.0833333333333334    Sn337
    0.5000000000000000    0.4166666666666667    0.4166666666666667    Sn338
    0.5000000000000000    0.4166666666666667    0.7500000000000000    Sn339
    0.5000000000000000    0.7500000000000000    0.0833333333333334    Sn340
    0.5000000000000000    0.7500000000000000    0.4166666666666667    Sn341
    0.5000000000000000    0.7500000000000000    0.7500000000000000    Sn342
    0.8333333333333334    0.0833333333333334    0.0833333333333334    Sn343
    0.8333333333333334    0.0833333333333334    0.4166666666666667    Sn344
    0.8333333333333334    0.0833333333333334    0.7500000000000000    Sn345
    0.8333333333333334    0.4166666666666667    0.0833333333333334    Sn346
    0.8333333333333334    0.4166666666666667    0.4166666666666667    Sn347
    0.8333333333333334    0.4166666666666667    0.7500000000000000    Sn348
    0.8333333333333334    0.7500000000000000    0.0833333333333334    Sn349
    0.8333333333333334    0.7500000000000000    0.4166666666666667    Sn350
    0.8333333333333334    0.7500000000000000    0.7500000000000000    Sn351
    0.1666666666666667    0.0833333333333334    0.2500000000000000    Sn352
    0.1666666666666667    0.0833333333333334    0.5833333333333334    Sn353
    0.1666666666666667    0.0833333333333334    0.9166666666666666    Sn354
    0.1666666666666667    0.4166666666666667    0.2500000000000000    Sn355
    0.1666666666666667    0.4166666666666667    0.5833333333333334    Sn356
    0.1666666666666667    0.4166666666666667    0.9166666666666666    Sn357
    0.1666666666666667    0.7500000000000000    0.2500000000000000    Sn358
    0.1666666666666667    0.7500000000000000    0.5833333333333334    Sn359
    0.1666666666666667    0.7500000000000000    0.9166666666666666    Sn360
    0.5000000000000000    0.0833333333333334    0.2500000000000000    Sn361
    0.5000000000000000    0.0833333333333334    0.5833333333333334    Sn362
    0.5000000000000000    0.0833333333333334    0.9166666666666666    Sn363
    0.5000000000000000    0.4166666666666667    0.2500000000000000    Sn364
    0.5000000000000000    0.4166666666666667    0.5833333333333334    Sn365
    0.5000000000000000    0.4166666666666667    0.9166666666666666    Sn366
    0.5000000000000000    0.7500000000000000    0.2500000000000000    Sn367
    0.5000000000000000    0.7500000000000000    0.5833333333333334    Sn368
    0.5000000000000000    0.7500000000000000    0.9166666666666666    Sn369
    0.8333333333333334    0.0833333333333334    0.2500000000000000    Sn370
    0.8333333333333334    0.0833333333333334    0.5833333333333334    Sn371
    0.8333333333333334    0.0833333333333334    0.9166666666666666    Sn372
    0.8333333333333334    0.4166666666666667    0.2500000000000000    Sn373
    0.8333333333333334    0.4166666666666667    0.5833333333333334    Sn374
    0.8333333333333334    0.4166666666666667    0.9166666666666666    Sn375
    0.8333333333333334    0.7500000000000000    0.2500000000000000    Sn376
    0.8333333333333334    0.7500000000000000    0.5833333333333334    Sn377
    0.8333333333333334    0.7500000000000000    0.9166666666666666    Sn378
    0.1666666666666667    0.2500000000000000    0.0833333333333334    Sn379
    0.1666666666666667    0.2500000000000000    0.4166666666666667    Sn380
    0.1666666666666667    0.2500000000000000    0.7500000000000000    Sn381
    0.1666666666666667    0.5833333333333334    0.0833333333333334    Sn382
    0.1666666666666667    0.5833333333333334    0.4166666666666667    Sn383
    0.1666666666666667    0.5833333333333334    0.7500000000000000    Sn384
    0.1666666666666667    0.9166666666666666    0.0833333333333334    Sn385
    0.1666666666666667    0.9166666666666666    0.4166666666666667    Sn386
    0.1666666666666667    0.9166666666666666    0.7500000000000000    Sn387
    0.5000000000000000    0.2500000000000000    0.0833333333333334    Sn388
    0.5000000000000000    0.2500000000000000    0.4166666666666667    Sn389
    0.5000000000000000    0.2500000000000000    0.7500000000000000    Sn390
    0.5000000000000000    0.5833333333333334    0.0833333333333334    Sn391
    0.5000000000000000    0.5833333333333334    0.4166666666666667    Sn392
    0.5000000000000000    0.5833333333333334    0.7500000000000000    Sn393
    0.5000000000000000    0.9166666666666666    0.0833333333333334    Sn394
    0.5000000000000000    0.9166666666666666    0.4166666666666667    Sn395
    0.5000000000000000    0.9166666666666666    0.7500000000000000    Sn396
    0.8333333333333334    0.2500000000000000    0.0833333333333334    Sn397
    0.8333333333333334    0.2500000000000000    0.4166666666666667    Sn398
    0.8333333333333334    0.2500000000000000    0.7500000000000000    Sn399
    0.8333333333333334    0.5833333333333334    0.0833333333333334    Sn400
    0.8333333333333334    0.5833333333333334    0.4166666666666667    Sn401
    0.8333333333333334    0.5833333333333334    0.7500000000000000    Sn402
    0.8333333333333334    0.9166666666666666    0.0833333333333334    Sn403
    0.8333333333333334    0.9166666666666666    0.4166666666666667    Sn404
    0.8333333333333334    0.9166666666666666    0.7500000000000000    Sn405
    0.1666666666666667    0.2500000000000000    0.2500000000000000    Sn406
    0.1666666666666667    0.2500000000000000    0.5833333333333334    Sn407
    0.1666666666666667    0.2500000000000000    0.9166666666666666    Sn408
    0.1666666666666667    0.5833333333333334    0.2500000000000000    Sn409
    0.1666666666666667    0.5833333333333334    0.5833333333333334    Sn410
    0.1666666666666667    0.5833333333333334    0.9166666666666666    Sn411
    0.1666666666666667    0.9166666666666666    0.2500000000000000    Sn412
    0.1666666666666667    0.9166666666666666    0.5833333333333334    Sn413
    0.1666666666666667    0.9166666666666666    0.9166666666666666    Sn414
    0.5000000000000000    0.2500000000000000    0.2500000000000000    Sn415
    0.5000000000000000    0.2500000000000000    0.5833333333333334    Sn416
    0.5000000000000000    0.2500000000000000    0.9166666666666666    Sn417
    0.5000000000000000    0.5833333333333334    0.2500000000000000    Sn418
    0.5000000000000000    0.5833333333333334    0.5833333333333334    Sn419
    0.5000000000000000    0.5833333333333334    0.9166666666666666    Sn420
    0.5000000000000000    0.9166666666666666    0.2500000000000000    Sn421
    0.5000000000000000    0.9166666666666666    0.5833333333333334    Sn422
    0.5000000000000000    0.9166666666666666    0.9166666666666666    Sn423
    0.8333333333333334    0.2500000000000000    0.2500000000000000    Sn424
    0.8333333333333334    0.2500000000000000    0.5833333333333334    Sn425
    0.8333333333333334    0.2500000000000000    0.9166666666666666    Sn426
    0.8333333333333334    0.5833333333333334    0.2500000000000000    Sn427
    0.8333333333333334    0.5833333333333334    0.5833333333333334    Sn428
    0.8333333333333334    0.5833333333333334    0.9166666666666666    Sn429
    0.8333333333333334    0.9166666666666666    0.2500000000000000    Sn430
    0.8333333333333334    0.9166666666666666    0.5833333333333334    Sn431
    0.8333333333333334    0.9166666666666666    0.9166666666666666    Sn432
    0.0833333333333334    0.0000000000000000    0.0833333333333334    Sn433
    0.0833333333333334    0.0000000000000000    0.4166666666666667    Sn434
    0.0833333333333334    0.0000000000000000    0.7500000000000000    Sn435
    0.0833333333333334    0.3333333333333334    0.0833333333333334    Sn436
    0.0833333333333334    0.3333333333333334    0.4166666666666667    Sn437
    0.0833333333333334    0.3333333333333334    0.7500000000000000    Sn438
    0.0833333333333334    0.6666666666666667    0.0833333333333334    Sn439
    0.0833333333333334    0.6666666666666667    0.4166666666666667    Sn440
    0.0833333333333334    0.6666666666666667    0.7500000000000000    Sn441
    0.4166666666666667    0.0000000000000000    0.0833333333333334    Sn442
    0.4166666666666667    0.0000000000000000    0.4166666666666667    Sn443
    0.4166666666666667    0.0000000000000000    0.7500000000000000    Sn444
    0.4166666666666667    0.3333333333333334    0.0833333333333334    Sn445
    0.4166666666666667    0.3333333333333334    0.4166666666666667    Sn446
    0.4166666666666667    0.3333333333333334    0.7500000000000000    Sn447
    0.4166666666666667    0.6666666666666667    0.0833333333333334    Sn448
    0.4166666666666667    0.6666666666666667    0.4166666666666667    Sn449
    0.4166666666666667    0.6666666666666667    0.7500000000000000    Sn450
    0.7500000000000000    0.0000000000000000    0.0833333333333334    Sn451
    0.7500000000000000    0.0000000000000000    0.4166666666666667    Sn452
    0.7500000000000000    0.0000000000000000    0.7500000000000000    Sn453
    0.7500000000000000    0.3333333333333334    0.0833333333333334    Sn454
    0.7500000000000000    0.3333333333333334    0.4166666666666667    Sn455
    0.7500000000000000    0.3333333333333334    0.7500000000000000    Sn456
    0.7500000000000000    0.6666666666666667    0.0833333333333334    Sn457
    0.7500000000000000    0.6666666666666667    0.4166666666666667    Sn458
    0.7500000000000000    0.6666666666666667    0.7500000000000000    Sn459
    0.0833333333333334    0.0000000000000000    0.2500000000000000    Sn460
    0.0833333333333334    0.0000000000000000    0.5833333333333334    Sn461
    0.0833333333333334    0.0000000000000000    0.9166666666666666    Sn462
    0.0833333333333334    0.3333333333333334    0.2500000000000000    Sn463
    0.0833333333333334    0.3333333333333334    0.5833333333333334    Sn464
    0.0833333333333334    0.3333333333333334    0.9166666666666666    Sn465
    0.0833333333333334    0.6666666666666667    0.2500000000000000    Sn466
    0.0833333333333334    0.6666666666666667    0.5833333333333334    Sn467
    0.0833333333333334    0.6666666666666667    0.9166666666666666    Sn468
    0.4166666666666667    0.0000000000000000    0.2500000000000000    Sn469
    0.4166666666666667    0.0000000000000000    0.5833333333333334    Sn470
    0.4166666666666667    0.0000000000000000    0.9166666666666666    Sn471
    0.4166666666666667    0.3333333333333334    0.2500000000000000    Sn472
    0.4166666666666667    0.3333333333333334    0.5833333333333334    Sn473
    0.4166666666666667    0.3333333333333334    0.9166666666666666    Sn474
    0.4166666666666667    0.6666666666666667    0.2500000000000000    Sn475
    0.4166666666666667    0.6666666666666667    0.5833333333333334    Sn476
    0.4166666666666667    0.6666666666666667    0.9166666666666666    Sn477
    0.7500000000000000    0.0000000000000000    0.2500000000000000    Sn478
    0.7500000000000000    0.0000000000000000    0.5833333333333334    Sn479
    0.7500000000000000    0.0000000000000000    0.9166666666666666    Sn480
    0.7500000000000000    0.3333333333333334    0.2500000000000000    Sn481
    0.7500000000000000    0.3333333333333334    0.5833333333333334    Sn482
    0.7500000000000000    0.3333333333333334    0.9166666666666666    Sn483
    0.7500000000000000    0.6666666666666667    0.2500000000000000    Sn484
    0.7500000000000000    0.6666666666666667    0.5833333333333334    Sn485
    0.7500000000000000    0.6666666666666667    0.9166666666666666    Sn486
    0.0833333333333334    0.1666666666666667    0.0833333333333334    Sn487
    0.0833333333333334    0.1666666666666667    0.4166666666666667    Sn488
    0.0833333333333334    0.1666666666666667    0.7500000000000000    Sn489
    0.0833333333333334    0.5000000000000000    0.0833333333333334    Sn490
    0.0833333333333334    0.5000000000000000    0.4166666666666667    Sn491
    0.0833333333333334    0.5000000000000000    0.7500000000000000    Sn492
    0.0833333333333334    0.8333333333333334    0.0833333333333334    Sn493
    0.0833333333333334    0.8333333333333334    0.4166666666666667    Sn494
    0.0833333333333334    0.8333333333333334    0.7500000000000000    Sn495
    0.4166666666666667    0.1666666666666667    0.0833333333333334    Sn496
    0.4166666666666667    0.1666666666666667    0.4166666666666667    Sn497
    0.4166666666666667    0.1666666666666667    0.7500000000000000    Sn498
    0.4166666666666667    0.5000000000000000    0.0833333333333334    Sn499
    0.4166666666666667    0.5000000000000000    0.4166666666666667    Sn500
    0.4166666666666667    0.5000000000000000    0.7500000000000000    Sn501
    0.4166666666666667    0.8333333333333334    0.0833333333333334    Sn502
    0.4166666666666667    0.8333333333333334    0.4166666666666667    Sn503
    0.4166666666666667    0.8333333333333334    0.7500000000000000    Sn504
    0.7500000000000000    0.1666666666666667    0.0833333333333334    Sn505
    0.7500000000000000    0.1666666666666667    0.4166666666666667    Sn506
    0.7500000000000000    0.1666666666666667    0.7500000000000000    Sn507
    0.7500000000000000    0.5000000000000000    0.0833333333333334    Sn508
    0.7500000000000000    0.5000000000000000    0.4166666666666667    Sn509
    0.7500000000000000    0.5000000000000000    0.7500000000000000    Sn510
    0.7500000000000000    0.8333333333333334    0.0833333333333334    Sn511
    0.7500000000000000    0.8333333333333334    0.4166666666666667    Sn512
    0.7500000000000000    0.8333333333333334    0.7500000000000000    Sn513
    0.0833333333333334    0.1666666666666667    0.2500000000000000    Sn514
    0.0833333333333334    0.1666666666666667    0.5833333333333334    Sn515
    0.0833333333333334    0.1666666666666667    0.9166666666666666    Sn516
    0.0833333333333334    0.5000000000000000    0.2500000000000000    Sn517
    0.0833333333333334    0.5000000000000000    0.5833333333333334    Sn518
    0.0833333333333334    0.5000000000000000    0.9166666666666666    Sn519
    0.0833333333333334    0.8333333333333334    0.2500000000000000    Sn520
    0.0833333333333334    0.8333333333333334    0.5833333333333334    Sn521
    0.0833333333333334    0.8333333333333334    0.9166666666666666    Sn522
    0.4166666666666667    0.1666666666666667    0.2500000000000000    Sn523
    0.4166666666666667    0.1666666666666667    0.5833333333333334    Sn524
    0.4166666666666667    0.1666666666666667    0.9166666666666666    Sn525
    0.4166666666666667    0.5000000000000000    0.2500000000000000    Sn526
    0.4166666666666667    0.5000000000000000    0.5833333333333334    Sn527
    0.4166666666666667    0.5000000000000000    0.9166666666666666    Sn528
    0.4166666666666667    0.8333333333333334    0.2500000000000000    Sn529
    0.4166666666666667    0.8333333333333334    0.5833333333333334    Sn530
    0.4166666666666667    0.8333333333333334    0.9166666666666666    Sn531
    0.7500000000000000    0.1666666666666667    0.2500000000000000    Sn532
    0.7500000000000000    0.1666666666666667    0.5833333333333334    Sn533
    0.7500000000000000    0.1666666666666667    0.9166666666666666    Sn534
    0.7500000000000000    0.5000000000000000    0.2500000000000000    Sn535
    0.7500000000000000    0.5000000000000000    0.5833333333333334    Sn536
    0.7500000000000000    0.5000000000000000    0.9166666666666666    Sn537
    0.7500000000000000    0.8333333333333334    0.2500000000000000    Sn538
    0.7500000000000000    0.8333333333333334    0.5833333333333334    Sn539
    0.7500000000000000    0.8333333333333334    0.9166666666666666    Sn540
    0.2500000000000000    0.0000000000000000    0.0833333333333334    Sn541
    0.2500000000000000    0.0000000000000000    0.4166666666666667    Sn542
    0.2500000000000000    0.0000000000000000    0.7500000000000000    Sn543
    0.2500000000000000    0.3333333333333334    0.0833333333333334    Sn544
    0.2500000000000000    0.3333333333333334    0.4166666666666667    Sn545
    0.2500000000000000    0.3333333333333334    0.7500000000000000    Sn546
    0.2500000000000000    0.6666666666666667    0.0833333333333334    Sn547
    0.2500000000000000    0.6666666666666667    0.4166666666666667    Sn548
    0.2500000000000000    0.6666666666666667    0.7500000000000000    Sn549
    0.5833333333333334    0.0000000000000000    0.0833333333333334    Sn550
    0.5833333333333334    0.0000000000000000    0.4166666666666667    Sn551
    0.5833333333333334    0.0000000000000000    0.7500000000000000    Sn552
    0.5833333333333334    0.3333333333333334    0.0833333333333334    Sn553
    0.5833333333333334    0.3333333333333334    0.4166666666666667    Sn554
    0.5833333333333334    0.3333333333333334    0.7500000000000000    Sn555
    0.5833333333333334    0.6666666666666667    0.0833333333333334    Sn556
    0.5833333333333334    0.6666666666666667    0.4166666666666667    Sn557
    0.5833333333333334    0.6666666666666667    0.7500000000000000    Sn558
    0.9166666666666666    0.0000000000000000    0.0833333333333334    Sn559
    0.9166666666666666    0.0000000000000000    0.4166666666666667    Sn560
    0.9166666666666666    0.0000000000000000    0.7500000000000000    Sn561
    0.9166666666666666    0.3333333333333334    0.0833333333333334    Sn562
    0.9166666666666666    0.3333333333333334    0.4166666666666667    Sn563
    0.9166666666666666    0.3333333333333334    0.7500000000000000    Sn564
    0.9166666666666666    0.6666666666666667    0.0833333333333334    Sn565
    0.9166666666666666    0.6666666666666667    0.4166666666666667    Sn566
    0.9166666666666666    0.6666666666666667    0.7500000000000000    Sn567
    0.2500000000000000    0.0000000000000000    0.2500000000000000    Sn568
    0.2500000000000000    0.0000000000000000    0.5833333333333334    Sn569
    0.2500000000000000    0.0000000000000000    0.9166666666666666    Sn570
    0.2500000000000000    0.3333333333333334    0.2500000000000000    Sn571
    0.2500000000000000    0.3333333333333334    0.5833333333333334    Sn572
    0.2500000000000000    0.3333333333333334    0.9166666666666666    Sn573
    0.2500000000000000    0.6666666666666667    0.2500000000000000    Sn574
    0.2500000000000000    0.6666666666666667    0.5833333333333334    Sn575
    0.2500000000000000    0.6666666666666667    0.9166666666666666    Sn576
    0.5833333333333334    0.0000000000000000    0.2500000000000000    Sn577
    0.5833333333333334    0.0000000000000000    0.5833333333333334    Sn578
    0.5833333333333334    0.0000000000000000    0.9166666666666666    Sn579
    0.5833333333333334    0.3333333333333334    0.2500000000000000    Sn580
    0.5833333333333334    0.3333333333333334    0.5833333333333334    Sn581
    0.5833333333333334    0.3333333333333334    0.9166666666666666    Sn582
    0.5833333333333334    0.6666666666666667    0.2500000000000000    Sn583
    0.5833333333333334    0.6666666666666667    0.5833333333333334    Sn584
    0.5833333333333334    0.6666666666666667    0.9166666666666666    Sn585
    0.9166666666666666    0.0000000000000000    0.2500000000000000    Sn586
    0.9166666666666666    0.0000000000000000    0.5833333333333334    Sn587
    0.9166666666666666    0.0000000000000000    0.9166666666666666    Sn588
    0.9166666666666666    0.3333333333333334    0.2500000000000000    Sn589
    0.9166666666666666    0.3333333333333334    0.5833333333333334    Sn590
    0.9166666666666666    0.3333333333333334    0.9166666666666666    Sn591
    0.9166666666666666    0.6666666666666667    0.2500000000000000    Sn592
    0.9166666666666666    0.6666666666666667    0.5833333333333334    Sn593
    0.9166666666666666    0.6666666666666667    0.9166666666666666    Sn594
    0.2500000000000000    0.1666666666666667    0.0833333333333334    Sn595
    0.2500000000000000    0.1666666666666667    0.4166666666666667    Sn596
    0.2500000000000000    0.1666666666666667    0.7500000000000000    Sn597
    0.2500000000000000    0.5000000000000000    0.0833333333333334    Sn598
    0.2500000000000000    0.5000000000000000    0.4166666666666667    Sn599
    0.2500000000000000    0.5000000000000000    0.7500000000000000    Sn600
    0.2500000000000000    0.8333333333333334    0.0833333333333334    Sn601
    0.2500000000000000    0.8333333333333334    0.4166666666666667    Sn602
    0.2500000000000000    0.8333333333333334    0.7500000000000000    Sn603
    0.5833333333333334    0.1666666666666667    0.0833333333333334    Sn604
    0.5833333333333334    0.1666666666666667    0.4166666666666667    Sn605
    0.5833333333333334    0.1666666666666667    0.7500000000000000    Sn606
    0.5833333333333334    0.5000000000000000    0.0833333333333334    Sn607
    0.5833333333333334    0.5000000000000000    0.4166666666666667    Sn608
    0.5833333333333334    0.5000000000000000    0.7500000000000000    Sn609
    0.5833333333333334    0.8333333333333334    0.0833333333333334    Sn610
    0.5833333333333334    0.8333333333333334    0.4166666666666667    Sn611
    0.5833333333333334    0.8333333333333334    0.7500000000000000    Sn612
    0.9166666666666666    0.1666666666666667    0.0833333333333334    Sn613
    0.9166666666666666    0.1666666666666667    0.4166666666666667    Sn614
    0.9166666666666666    0.1666666666666667    0.7500000000000000    Sn615
    0.9166666666666666    0.5000000000000000    0.0833333333333334    Sn616
    0.9166666666666666    0.5000000000000000    0.4166666666666667    Sn617
    0.9166666666666666    0.5000000000000000    0.7500000000000000    Sn618
    0.9166666666666666    0.8333333333333334    0.0833333333333334    Sn619
    0.9166666666666666    0.8333333333333334    0.4166666666666667    Sn620
    0.9166666666666666    0.8333333333333334    0.7500000000000000    Sn621
    0.2500000000000000    0.1666666666666667    0.2500000000000000    Sn622
    0.2500000000000000    0.1666666666666667    0.5833333333333334    Sn623
    0.2500000000000000    0.1666666666666667    0.9166666666666666    Sn624
    0.2500000000000000    0.5000000000000000    0.2500000000000000    Sn625
    0.2500000000000000    0.5000000000000000    0.5833333333333334    Sn626
    0.2500000000000000    0.5000000000000000    0.9166666666666666    Sn627
    0.2500000000000000    0.8333333333333334    0.2500000000000000    Sn628
    0.2500000000000000    0.8333333333333334    0.5833333333333334    Sn629
    0.2500000000000000    0.8333333333333334    0.9166666666666666    Sn630
    0.5833333333333334    0.1666666666666667    0.2500000000000000    Sn631
    0.5833333333333334    0.1666666666666667    0.5833333333333334    Sn632
    0.5833333333333334    0.1666666666666667    0.9166666666666666    Sn633
    0.5833333333333334    0.5000000000000000    0.2500000000000000    Sn634
    0.5833333333333334    0.5000000000000000    0.5833333333333334    Sn635
    0.5833333333333334    0.5000000000000000    0.9166666666666666    Sn636
    0.5833333333333334    0.8333333333333334    0.2500000000000000    Sn637
    0.5833333333333334    0.8333333333333334    0.5833333333333334    Sn638
    0.5833333333333334    0.8333333333333334    0.9166666666666666    Sn639
    0.9166666666666666    0.1666666666666667    0.2500000000000000    Sn640
    0.9166666666666666    0.1666666666666667    0.5833333333333334    Sn641
    0.9166666666666666    0.1666666666666667    0.9166666666666666    Sn642
    0.9166666666666666    0.5000000000000000    0.2500000000000000    Sn643
    0.9166666666666666    0.5000000000000000    0.5833333333333334    Sn644
    0.9166666666666666    0.5000000000000000    0.9166666666666666    Sn645
    0.9166666666666666    0.8333333333333334    0.2500000000000000    Sn646
    0.9166666666666666    0.8333333333333334    0.5833333333333334    Sn647
    0.9166666666666666    0.8333333333333334    0.9166666666666666    Sn648
    0.0833333333333334    0.0833333333333334    0.0000000000000000    Sn649
    0.0833333333333334    0.0833333333333334    0.3333333333333334    Sn650
    0.0833333333333334    0.0833333333333334    0.6666666666666667    Sn651
    0.0833333333333334    0.4166666666666667    0.0000000000000000    Sn652
    0.0833333333333334    0.4166666666666667    0.3333333333333334    Sn653
    0.0833333333333334    0.4166666666666667    0.6666666666666667    Sn654
    0.0833333333333334    0.7500000000000000    0.0000000000000000    Sn655
    0.0833333333333334    0.7500000000000000    0.3333333333333334    Sn656
    0.0833333333333334    0.7500000000000000    0.6666666666666667    Sn657
    0.4166666666666667    0.0833333333333334    0.0000000000000000    Sn658
    0.4166666666666667    0.0833333333333334    0.3333333333333334    Sn659
    0.4166666666666667    0.0833333333333334    0.6666666666666667    Sn660
    0.4166666666666667    0.4166666666666667    0.0000000000000000    Sn661
    0.4166666666666667    0.4166666666666667    0.3333333333333334    Sn662
    0.4166666666666667    0.4166666666666667    0.6666666666666667    Sn663
    0.4166666666666667    0.7500000000000000    0.0000000000000000    Sn664
    0.4166666666666667    0.7500000000000000    0.3333333333333334    Sn665
    0.4166666666666667    0.7500000000000000    0.6666666666666667    Sn666
    0.7500000000000000    0.0833333333333334    0.0000000000000000    Sn667
    0.7500000000000000    0.0833333333333334    0.3333333333333334    Sn668
    0.7500000000000000    0.0833333333333334    0.6666666666666667    Sn669
    0.7500000000000000    0.4166666666666667    0.0000000000000000    Sn670
    0.7500000000000000    0.4166666666666667    0.3333333333333334    Sn671
    0.7500000000000000    0.4166666666666667    0.6666666666666667    Sn672
    0.7500000000000000    0.7500000000000000    0.0000000000000000    Sn673
    0.7500000000000000    0.7500000000000000    0.3333333333333334    Sn674
    0.7500000000000000    0.7500000000000000    0.6666666666666667    Sn675
    0.0833333333333334    0.0833333333333334    0.1666666666666667    Sn676
    0.0833333333333334    0.0833333333333334    0.5000000000000000    Sn677
    0.0833333333333334    0.0833333333333334    0.8333333333333334    Sn678
    0.0833333333333334    0.4166666666666667    0.1666666666666667    Sn679
    0.0833333333333334    0.4166666666666667    0.5000000000000000    Sn680
    0.0833333333333334    0.4166666666666667    0.8333333333333334    Sn681
    0.0833333333333334    0.7500000000000000    0.1666666666666667    Sn682
    0.0833333333333334    0.7500000000000000    0.5000000000000000    Sn683
    0.0833333333333334    0.7500000000000000    0.8333333333333334    Sn684
    0.4166666666666667    0.0833333333333334    0.1666666666666667    Sn685
    0.4166666666666667    0.0833333333333334    0.5000000000000000    Sn686
    0.4166666666666667    0.0833333333333334    0.8333333333333334    Sn687
    0.4166666666666667    0.4166666666666667    0.1666666666666667    Sn688
    0.4166666666666667    0.4166666666666667    0.5000000000000000    Sn689
    0.4166666666666667    0.4166666666666667    0.8333333333333334    Sn690
    0.4166666666666667    0.7500000000000000    0.1666666666666667    Sn691
    0.4166666666666667    0.7500000000000000    0.5000000000000000    Sn692
    0.4166666666666667    0.7500000000000000    0.8333333333333334    Sn693
    0.7500000000000000    0.0833333333333334    0.1666666666666667    Sn694
    0.7500000000000000    0.0833333333333334    0.5000000000000000    Sn695
    0.7500000000000000    0.0833333333333334    0.8333333333333334    Sn696
    0.7500000000000000    0.4166666666666667    0.1666666666666667    Sn697
    0.7500000000000000    0.4166666666666667    0.5000000000000000    Sn698
    0.7500000000000000    0.4166666666666667    0.8333333333333334    Sn699
    0.7500000000000000    0.7500000000000000    0.1666666666666667    Sn700
    0.7500000000000000    0.7500000000000000    0.5000000000000000    Sn701
    0.7500000000000000    0.7500000000000000    0.8333333333333334    Sn702
    0.0833333333333334    0.2500000000000000    0.0000000000000000    Sn703
    0.0833333333333334    0.2500000000000000    0.3333333333333334    Sn704
    0.0833333333333334    0.2500000000000000    0.6666666666666667    Sn705
    0.0833333333333334    0.5833333333333334    0.0000000000000000    Sn706
    0.0833333333333334    0.5833333333333334    0.3333333333333334    Sn707
    0.0833333333333334    0.5833333333333334    0.6666666666666667    Sn708
    0.0833333333333334    0.9166666666666666    0.0000000000000000    Sn709
    0.0833333333333334    0.9166666666666666    0.3333333333333334    Sn710
    0.0833333333333334    0.9166666666666666    0.6666666666666667    Sn711
    0.4166666666666667    0.2500000000000000    0.0000000000000000    Sn712
    0.4166666666666667    0.2500000000000000    0.3333333333333334    Sn713
    0.4166666666666667    0.2500000000000000    0.6666666666666667    Sn714
    0.4166666666666667    0.5833333333333334    0.0000000000000000    Sn715
    0.4166666666666667    0.5833333333333334    0.3333333333333334    Sn716
    0.4166666666666667    0.5833333333333334    0.6666666666666667    Sn717
    0.4166666666666667    0.9166666666666666    0.0000000000000000    Sn718
    0.4166666666666667    0.9166666666666666    0.3333333333333334    Sn719
    0.4166666666666667    0.9166666666666666    0.6666666666666667    Sn720
    0.7500000000000000    0.2500000000000000    0.0000000000000000    Sn721
    0.7500000000000000    0.2500000000000000    0.3333333333333334    Sn722
    0.7500000000000000    0.2500000000000000    0.6666666666666667    Sn723
    0.7500000000000000    0.5833333333333334    0.0000000000000000    Sn724
    0.7500000000000000    0.5833333333333334    0.3333333333333334    Sn725
    0.7500000000000000    0.5833333333333334    0.6666666666666667    Sn726
    0.7500000000000000    0.9166666666666666    0.0000000000000000    Sn727
    0.7500000000000000    0.9166666666666666    0.3333333333333334    Sn728
    0.7500000000000000    0.9166666666666666    0.6666666666666667    Sn729
    0.0833333333333334    0.2500000000000000    0.1666666666666667    Sn730
    0.0833333333333334    0.2500000000000000    0.5000000000000000    Sn731
    0.0833333333333334    0.2500000000000000    0.8333333333333334    Sn732
    0.0833333333333334    0.5833333333333334    0.1666666666666667    Sn733
    0.0833333333333334    0.5833333333333334    0.5000000000000000    Sn734
    0.0833333333333334    0.5833333333333334    0.8333333333333334    Sn735
    0.0833333333333334    0.9166666666666666    0.1666666666666667    Sn736
    0.0833333333333334    0.9166666666666666    0.5000000000000000    Sn737
    0.0833333333333334    0.9166666666666666    0.8333333333333334    Sn738
    0.4166666666666667    0.2500000000000000    0.1666666666666667    Sn739
    0.4166666666666667    0.2500000000000000    0.5000000000000000    Sn740
    0.4166666666666667    0.2500000000000000    0.8333333333333334    Sn741
    0.4166666666666667    0.5833333333333334    0.1666666666666667    Sn742
    0.4166666666666667    0.5833333333333334    0.5000000000000000    Sn743
    0.4166666666666667    0.5833333333333334    0.8333333333333334    Sn744
    0.4166666666666667    0.9166666666666666    0.1666666666666667    Sn745
    0.4166666666666667    0.9166666666666666    0.5000000000000000    Sn746
    0.4166666666666667    0.9166666666666666    0.8333333333333334    Sn747
    0.7500000000000000    0.2500000000000000    0.1666666666666667    Sn748
    0.7500000000000000    0.2500000000000000    0.5000000000000000    Sn749
    0.7500000000000000    0.2500000000000000    0.8333333333333334    Sn750
    0.7500000000000000    0.5833333333333334    0.1666666666666667    Sn751
    0.7500000000000000    0.5833333333333334    0.5000000000000000    Sn752
    0.7500000000000000    0.5833333333333334    0.8333333333333334    Sn753
    0.7500000000000000    0.9166666666666666    0.1666666666666667    Sn754
    0.7500000000000000    0.9166666666666666    0.5000000000000000    Sn755
    0.7500000000000000    0.9166666666666666    0.8333333333333334    Sn756
    0.2500000000000000    0.0833333333333334    0.0000000000000000    Sn757
    0.2500000000000000    0.0833333333333334    0.3333333333333334    Sn758
    0.2500000000000000    0.0833333333333334    0.6666666666666667    Sn759
    0.2500000000000000    0.4166666666666667    0.0000000000000000    Sn760
    0.2500000000000000    0.4166666666666667    0.3333333333333334    Sn761
    0.2500000000000000    0.4166666666666667    0.6666666666666667    Sn762
    0.2500000000000000    0.7500000000000000    0.0000000000000000    Sn763
    0.2500000000000000    0.7500000000000000    0.3333333333333334    Sn764
    0.2500000000000000    0.7500000000000000    0.6666666666666667    Sn765
    0.5833333333333334    0.0833333333333334    0.0000000000000000    Sn766
    0.5833333333333334    0.0833333333333334    0.3333333333333334    Sn767
    0.5833333333333334    0.0833333333333334    0.6666666666666667    Sn768
    0.5833333333333334    0.4166666666666667    0.0000000000000000    Sn769
    0.5833333333333334    0.4166666666666667    0.3333333333333334    Sn770
    0.5833333333333334    0.4166666666666667    0.6666666666666667    Sn771
    0.5833333333333334    0.7500000000000000    0.0000000000000000    Sn772
    0.5833333333333334    0.7500000000000000    0.3333333333333334    Sn773
    0.5833333333333334    0.7500000000000000    0.6666666666666667    Sn774
    0.9166666666666666    0.0833333333333334    0.0000000000000000    Sn775
    0.9166666666666666    0.0833333333333334    0.3333333333333334    Sn776
    0.9166666666666666    0.0833333333333334    0.6666666666666667    Sn777
    0.9166666666666666    0.4166666666666667    0.0000000000000000    Sn778
    0.9166666666666666    0.4166666666666667    0.3333333333333334    Sn779
    0.9166666666666666    0.4166666666666667    0.6666666666666667    Sn780
    0.9166666666666666    0.7500000000000000    0.0000000000000000    Sn781
    0.9166666666666666    0.7500000000000000    0.3333333333333334    Sn782
    0.9166666666666666    0.7500000000000000    0.6666666666666667    Sn783
    0.2500000000000000    0.0833333333333334    0.1666666666666667    Sn784
    0.2500000000000000    0.0833333333333334    0.5000000000000000    Sn785
    0.2500000000000000    0.0833333333333334    0.8333333333333334    Sn786
    0.2500000000000000    0.4166666666666667    0.1666666666666667    Sn787
    0.2500000000000000    0.4166666666666667    0.5000000000000000    Sn788
    0.2500000000000000    0.4166666666666667    0.8333333333333334    Sn789
    0.2500000000000000    0.7500000000000000    0.1666666666666667    Sn790
    0.2500000000000000    0.7500000000000000    0.5000000000000000    Sn791
    0.2500000000000000    0.7500000000000000    0.8333333333333334    Sn792
    0.5833333333333334    0.0833333333333334    0.1666666666666667    Sn793
    0.5833333333333334    0.0833333333333334    0.5000000000000000    Sn794
    0.5833333333333334    0.0833333333333334    0.8333333333333334    Sn795
    0.5833333333333334    0.4166666666666667    0.1666666666666667    Sn796
    0.5833333333333334    0.4166666666666667    0.5000000000000000    Sn797
    0.5833333333333334    0.4166666666666667    0.8333333333333334    Sn798
    0.5833333333333334    0.7500000000000000    0.1666666666666667    Sn799
    0.5833333333333334    0.7500000000000000    0.5000000000000000    Sn800
    0.5833333333333334    0.7500000000000000    0.8333333333333334    Sn801
    0.9166666666666666    0.0833333333333334    0.1666666666666667    Sn802
    0.9166666666666666    0.0833333333333334    0.5000000000000000    Sn803
    0.9166666666666666    0.0833333333333334    0.8333333333333334    Sn804
    0.9166666666666666    0.4166666666666667    0.1666666666666667    Sn805
    0.9166666666666666    0.4166666666666667    0.5000000000000000    Sn806
    0.9166666666666666    0.4166666666666667    0.8333333333333334    Sn807
    0.9166666666666666    0.7500000000000000    0.1666666666666667    Sn808
    0.9166666666666666    0.7500000000000000    0.5000000000000000    Sn809
    0.9166666666666666    0.7500000000000000    0.8333333333333334    Sn810
    0.2500000000000000    0.2500000000000000    0.0000000000000000    Sn811
    0.2500000000000000    0.2500000000000000    0.3333333333333334    Sn812
    0.2500000000000000    0.2500000000000000    0.6666666666666667    Sn813
    0.2500000000000000    0.5833333333333334    0.0000000000000000    Sn814
    0.2500000000000000    0.5833333333333334    0.3333333333333334    Sn815
    0.2500000000000000    0.5833333333333334    0.6666666666666667    Sn816
    0.2500000000000000    0.9166666666666666    0.0000000000000000    Sn817
    0.2500000000000000    0.9166666666666666    0.3333333333333334    Sn818
    0.2500000000000000    0.9166666666666666    0.6666666666666667    Sn819
    0.5833333333333334    0.2500000000000000    0.0000000000000000    Sn820
    0.5833333333333334    0.2500000000000000    0.3333333333333334    Sn821
    0.5833333333333334    0.2500000000000000    0.6666666666666667    Sn822
    0.5833333333333334    0.5833333333333334    0.0000000000000000    Sn823
    0.5833333333333334    0.5833333333333334    0.3333333333333334    Sn824
    0.5833333333333334    0.5833333333333334    0.6666666666666667    Sn825
    0.5833333333333334    0.9166666666666666    0.0000000000000000    Sn826
    0.5833333333333334    0.9166666666666666    0.3333333333333334    Sn827
    0.5833333333333334    0.9166666666666666    0.6666666666666667    Sn828
    0.9166666666666666    0.2500000000000000    0.0000000000000000    Sn829
    0.9166666666666666    0.2500000000000000    0.3333333333333334    Sn830
    0.9166666666666666    0.2500000000000000    0.6666666666666667    Sn831
    0.9166666666666666    0.5833333333333334    0.0000000000000000    Sn832
    0.9166666666666666    0.5833333333333334    0.3333333333333334    Sn833
    0.9166666666666666    0.5833333333333334    0.6666666666666667    Sn834
    0.9166666666666666    0.9166666666666666    0.0000000000000000    Sn835
    0.9166666666666666    0.9166666666666666    0.3333333333333334    Sn836
    0.9166666666666666    0.9166666666666666    0.6666666666666667    Sn837
    0.2500000000000000    0.2500000000000000    0.1666666666666667    Sn838
    0.2500000000000000    0.2500000000000000    0.5000000000000000    Sn839
    0.2500000000000000    0.2500000000000000    0.8333333333333334    Sn840
    0.2500000000000000    0.5833333333333334    0.1666666666666667    Sn841
    0.2500000000000000    0.5833333333333334    0.5000000000000000    Sn842
    0.2500000000000000    0.5833333333333334    0.8333333333333334    Sn843
    0.2500000000000000    0.9166666666666666    0.1666666666666667    Sn844
    0.2500000000000000    0.9166666666666666    0.5000000000000000    Sn845
    0.2500000000000000    0.9166666666666666    0.8333333333333334    Sn846
    0.5833333333333334    0.2500000000000000    0.1666666666666667    Sn847
    0.5833333333333334    0.2500000000000000    0.5000000000000000    Sn848
    0.5833333333333334    0.2500000000000000    0.8333333333333334    Sn849
    0.5833333333333334    0.5833333333333334    0.1666666666666667    Sn850
    0.5833333333333334    0.5833333333333334    0.5000000000000000    Sn851
    0.5833333333333334    0.5833333333333334    0.8333333333333334    Sn852
    0.5833333333333334    0.9166666666666666    0.1666666666666667    Sn853
    0.5833333333333334    0.9166666666666666    0.5000000000000000    Sn854
    0.5833333333333334    0.9166666666666666    0.8333333333333334    Sn855
    0.9166666666666666    0.2500000000000000    0.1666666666666667    Sn856
    0.9166666666666666    0.2500000000000000    0.5000000000000000    Sn857
    0.9166666666666666    0.2500000000000000    0.8333333333333334    Sn858
    0.9166666666666666    0.5833333333333334    0.1666666666666667    Sn859
    0.9166666666666666    0.5833333333333334    0.5000000000000000    Sn860
    0.9166666666666666    0.5833333333333334    0.8333333333333334    Sn861
    0.9166666666666666    0.9166666666666666    0.1666666666666667    Sn862
    0.9166666666666666    0.9166666666666666    0.5000000000000000    Sn863
    0.9166666666666666    0.9166666666666666    0.8333333333333334    Sn864
    0.1260413966749141    0.0833333333333334    0.0833333333333334     I001
    0.1260413966749141    0.0833333333333334    0.4166666666666667     I002
    0.1260413966749141    0.0833333333333334    0.7500000000000000     I003
    0.1260413966749141    0.4166666666666667    0.0833333333333334     I004
    0.1260413966749141    0.4166666666666667    0.4166666666666667     I005
    0.1260413966749141    0.4166666666666667    0.7500000000000000     I006
    0.1260413966749141    0.7500000000000000    0.0833333333333334     I007
    0.1260413966749141    0.7500000000000000    0.4166666666666667     I008
    0.1260413966749141    0.7500000000000000    0.7500000000000000     I009
    0.4593747300082475    0.0833333333333334    0.0833333333333334     I010
    0.4593747300082475    0.0833333333333334    0.4166666666666667     I011
    0.4593747300082475    0.0833333333333334    0.7500000000000000     I012
    0.4593747300082475    0.4166666666666667    0.0833333333333334     I013
    0.4593747300082475    0.4166666666666667    0.4166666666666667     I014
    0.4593747300082475    0.4166666666666667    0.7500000000000000     I015
    0.4593747300082475    0.7500000000000000    0.0833333333333334     I016
    0.4593747300082475    0.7500000000000000    0.4166666666666667     I017
    0.4593747300082475    0.7500000000000000    0.7500000000000000     I018
    0.7927080633415808    0.0833333333333334    0.0833333333333334     I019
    0.7927080633415808    0.0833333333333334    0.4166666666666667     I020
    0.7927080633415808    0.0833333333333334    0.7500000000000000     I021
    0.7927080633415808    0.4166666666666667    0.0833333333333334     I022
    0.7927080633415808    0.4166666666666667    0.4166666666666667     I023
    0.7927080633415808    0.4166666666666667    0.7500000000000000     I024
    0.7927080633415808    0.7500000000000000    0.0833333333333334     I025
    0.7927080633415808    0.7500000000000000    0.4166666666666667     I026
    0.7927080633415808    0.7500000000000000    0.7500000000000000     I027
    0.1260413966749141    0.0833333333333334    0.2500000000000000     I028
    0.1260413966749141    0.0833333333333334    0.5833333333333334     I029
    0.1260413966749141    0.0833333333333334    0.9166666666666666     I030
    0.1260413966749141    0.4166666666666667    0.2500000000000000     I031
    0.1260413966749141    0.4166666666666667    0.5833333333333334     I032
    0.1260413966749141    0.4166666666666667    0.9166666666666666     I033
    0.1260413966749141    0.7500000000000000    0.2500000000000000     I034
    0.1260413966749141    0.7500000000000000    0.5833333333333334     I035
    0.1260413966749141    0.7500000000000000    0.9166666666666666     I036
    0.4593747300082475    0.0833333333333334    0.2500000000000000     I037
    0.4593747300082475    0.0833333333333334    0.5833333333333334     I038
    0.4593747300082475    0.0833333333333334    0.9166666666666666     I039
    0.4593747300082475    0.4166666666666667    0.2500000000000000     I040
    0.4593747300082475    0.4166666666666667    0.5833333333333334     I041
    0.4593747300082475    0.4166666666666667    0.9166666666666666     I042
    0.4593747300082475    0.7500000000000000    0.2500000000000000     I043
    0.4593747300082475    0.7500000000000000    0.5833333333333334     I044
    0.4593747300082475    0.7500000000000000    0.9166666666666666     I045
    0.7927080633415808    0.0833333333333334    0.2500000000000000     I046
    0.7927080633415808    0.0833333333333334    0.5833333333333334     I047
    0.7927080633415808    0.0833333333333334    0.9166666666666666     I048
    0.7927080633415808    0.4166666666666667    0.2500000000000000     I049
    0.7927080633415808    0.4166666666666667    0.5833333333333334     I050
    0.7927080633415808    0.4166666666666667    0.9166666666666666     I051
    0.7927080633415808    0.7500000000000000    0.2500000000000000     I052
    0.7927080633415808    0.7500000000000000    0.5833333333333334     I053
    0.7927080633415808    0.7500000000000000    0.9166666666666666     I054
    0.1260413966749141    0.2500000000000000    0.0833333333333334     I055
    0.1260413966749141    0.2500000000000000    0.4166666666666667     I056
    0.1260413966749141    0.2500000000000000    0.7500000000000000     I057
    0.1260413966749141    0.5833333333333334    0.0833333333333334     I058
    0.1260413966749141    0.5833333333333334    0.4166666666666667     I059
    0.1260413966749141    0.5833333333333334    0.7500000000000000     I060
    0.1260413966749141    0.9166666666666666    0.0833333333333334     I061
    0.1260413966749141    0.9166666666666666    0.4166666666666667     I062
    0.1260413966749141    0.9166666666666666    0.7500000000000000     I063
    0.4593747300082475    0.2500000000000000    0.0833333333333334     I064
    0.4593747300082475    0.2500000000000000    0.4166666666666667     I065
    0.4593747300082475    0.2500000000000000    0.7500000000000000     I066
    0.4593747300082475    0.5833333333333334    0.0833333333333334     I067
    0.4593747300082475    0.5833333333333334    0.4166666666666667     I068
    0.4593747300082475    0.5833333333333334    0.7500000000000000     I069
    0.4593747300082475    0.9166666666666666    0.0833333333333334     I070
    0.4593747300082475    0.9166666666666666    0.4166666666666667     I071
    0.4593747300082475    0.9166666666666666    0.7500000000000000     I072
    0.7927080633415808    0.2500000000000000    0.0833333333333334     I073
    0.7927080633415808    0.2500000000000000    0.4166666666666667     I074
    0.7927080633415808    0.2500000000000000    0.7500000000000000     I075
    0.7927080633415808    0.5833333333333334    0.0833333333333334     I076
    0.7927080633415808    0.5833333333333334    0.4166666666666667     I077
    0.7927080633415808    0.5833333333333334    0.7500000000000000     I078
    0.7927080633415808    0.9166666666666666    0.0833333333333334     I079
    0.7927080633415808    0.9166666666666666    0.4166666666666667     I080
    0.7927080633415808    0.9166666666666666    0.7500000000000000     I081
    0.1260413966749141    0.2500000000000000    0.2500000000000000     I082
    0.1260413966749141    0.2500000000000000    0.5833333333333334     I083
    0.1260413966749141    0.2500000000000000    0.9166666666666666     I084
    0.1260413966749141    0.5833333333333334    0.2500000000000000     I085
    0.1260413966749141    0.5833333333333334    0.5833333333333334     I086
    0.1260413966749141    0.5833333333333334    0.9166666666666666     I087
    0.1260413966749141    0.9166666666666666    0.2500000000000000     I088
    0.1260413966749141    0.9166666666666666    0.5833333333333334     I089
    0.1260413966749141    0.9166666666666666    0.9166666666666666     I090
    0.4593747300082475    0.2500000000000000    0.2500000000000000     I091
    0.4593747300082475    0.2500000000000000    0.5833333333333334     I092
    0.4593747300082475    0.2500000000000000    0.9166666666666666     I093
    0.4593747300082475    0.5833333333333334    0.2500000000000000     I094
    0.4593747300082475    0.5833333333333334    0.5833333333333334     I095
    0.4593747300082475    0.5833333333333334    0.9166666666666666     I096
    0.4593747300082475    0.9166666666666666    0.2500000000000000     I097
    0.4593747300082475    0.9166666666666666    0.5833333333333334     I098
    0.4593747300082475    0.9166666666666666    0.9166666666666666     I099
    0.7927080633415808    0.2500000000000000    0.2500000000000000     I100
    0.7927080633415808    0.2500000000000000    0.5833333333333334     I101
    0.7927080633415808    0.2500000000000000    0.9166666666666666     I102
    0.7927080633415808    0.5833333333333334    0.2500000000000000     I103
    0.7927080633415808    0.5833333333333334    0.5833333333333334     I104
    0.7927080633415808    0.5833333333333334    0.9166666666666666     I105
    0.7927080633415808    0.9166666666666666    0.2500000000000000     I106
    0.7927080633415808    0.9166666666666666    0.5833333333333334     I107
    0.7927080633415808    0.9166666666666666    0.9166666666666666     I108
    0.2927080633415808    0.0833333333333334    0.0833333333333334     I109
    0.2927080633415808    0.0833333333333334    0.4166666666666667     I110
    0.2927080633415808    0.0833333333333334    0.7500000000000000     I111
    0.2927080633415808    0.4166666666666667    0.0833333333333334     I112
    0.2927080633415808    0.4166666666666667    0.4166666666666667     I113
    0.2927080633415808    0.4166666666666667    0.7500000000000000     I114
    0.2927080633415808    0.7500000000000000    0.0833333333333334     I115
    0.2927080633415808    0.7500000000000000    0.4166666666666667     I116
    0.2927080633415808    0.7500000000000000    0.7500000000000000     I117
    0.6260413966749141    0.0833333333333334    0.0833333333333334     I118
    0.6260413966749141    0.0833333333333334    0.4166666666666667     I119
    0.6260413966749141    0.0833333333333334    0.7500000000000000     I120
    0.6260413966749141    0.4166666666666667    0.0833333333333334     I121
    0.6260413966749141    0.4166666666666667    0.4166666666666667     I122
    0.6260413966749141    0.4166666666666667    0.7500000000000000     I123
    0.6260413966749141    0.7500000000000000    0.0833333333333334     I124
    0.6260413966749141    0.7500000000000000    0.4166666666666667     I125
    0.6260413966749141    0.7500000000000000    0.7500000000000000     I126
    0.9593747300082475    0.0833333333333334    0.0833333333333334     I127
    0.9593747300082475    0.0833333333333334    0.4166666666666667     I128
    0.9593747300082475    0.0833333333333334    0.7500000000000000     I129
    0.9593747300082475    0.4166666666666667    0.0833333333333334     I130
    0.9593747300082475    0.4166666666666667    0.4166666666666667     I131
    0.9593747300082475    0.4166666666666667    0.7500000000000000     I132
    0.9593747300082475    0.7500000000000000    0.0833333333333334     I133
    0.9593747300082475    0.7500000000000000    0.4166666666666667     I134
    0.9593747300082475    0.7500000000000000    0.7500000000000000     I135
    0.2927080633415808    0.0833333333333334    0.2500000000000000     I136
    0.2927080633415808    0.0833333333333334    0.5833333333333334     I137
    0.2927080633415808    0.0833333333333334    0.9166666666666666     I138
    0.2927080633415808    0.4166666666666667    0.2500000000000000     I139
    0.2927080633415808    0.4166666666666667    0.5833333333333334     I140
    0.2927080633415808    0.4166666666666667    0.9166666666666666     I141
    0.2927080633415808    0.7500000000000000    0.2500000000000000     I142
    0.2927080633415808    0.7500000000000000    0.5833333333333334     I143
    0.2927080633415808    0.7500000000000000    0.9166666666666666     I144
    0.6260413966749141    0.0833333333333334    0.2500000000000000     I145
    0.6260413966749141    0.0833333333333334    0.5833333333333334     I146
    0.6260413966749141    0.0833333333333334    0.9166666666666666     I147
    0.6260413966749141    0.4166666666666667    0.2500000000000000     I148
    0.6260413966749141    0.4166666666666667    0.5833333333333334     I149
    0.6260413966749141    0.4166666666666667    0.9166666666666666     I150
    0.6260413966749141    0.7500000000000000    0.2500000000000000     I151
    0.6260413966749141    0.7500000000000000    0.5833333333333334     I152
    0.6260413966749141    0.7500000000000000    0.9166666666666666     I153
    0.9593747300082475    0.0833333333333334    0.2500000000000000     I154
    0.9593747300082475    0.0833333333333334    0.5833333333333334     I155
    0.9593747300082475    0.0833333333333334    0.9166666666666666     I156
    0.9593747300082475    0.4166666666666667    0.2500000000000000     I157
    0.9593747300082475    0.4166666666666667    0.5833333333333334     I158
    0.9593747300082475    0.4166666666666667    0.9166666666666666     I159
    0.9593747300082475    0.7500000000000000    0.2500000000000000     I160
    0.9593747300082475    0.7500000000000000    0.5833333333333334     I161
    0.9593747300082475    0.7500000000000000    0.9166666666666666     I162
    0.2927080633415808    0.2500000000000000    0.0833333333333334     I163
    0.2927080633415808    0.2500000000000000    0.4166666666666667     I164
    0.2927080633415808    0.2500000000000000    0.7500000000000000     I165
    0.2927080633415808    0.5833333333333334    0.0833333333333334     I166
    0.2927080633415808    0.5833333333333334    0.4166666666666667     I167
    0.2927080633415808    0.5833333333333334    0.7500000000000000     I168
    0.2927080633415808    0.9166666666666666    0.0833333333333334     I169
    0.2927080633415808    0.9166666666666666    0.4166666666666667     I170
    0.2927080633415808    0.9166666666666666    0.7500000000000000     I171
    0.6260413966749141    0.2500000000000000    0.0833333333333334     I172
    0.6260413966749141    0.2500000000000000    0.4166666666666667     I173
    0.6260413966749141    0.2500000000000000    0.7500000000000000     I174
    0.6260413966749141    0.5833333333333334    0.0833333333333334     I175
    0.6260413966749141    0.5833333333333334    0.4166666666666667     I176
    0.6260413966749141    0.5833333333333334    0.7500000000000000     I177
    0.6260413966749141    0.9166666666666666    0.0833333333333334     I178
    0.6260413966749141    0.9166666666666666    0.4166666666666667     I179
    0.6260413966749141    0.9166666666666666    0.7500000000000000     I180
    0.9593747300082475    0.2500000000000000    0.0833333333333334     I181
    0.9593747300082475    0.2500000000000000    0.4166666666666667     I182
    0.9593747300082475    0.2500000000000000    0.7500000000000000     I183
    0.9593747300082475    0.5833333333333334    0.0833333333333334     I184
    0.9593747300082475    0.5833333333333334    0.4166666666666667     I185
    0.9593747300082475    0.5833333333333334    0.7500000000000000     I186
    0.9593747300082475    0.9166666666666666    0.0833333333333334     I187
    0.9593747300082475    0.9166666666666666    0.4166666666666667     I188
    0.9593747300082475    0.9166666666666666    0.7500000000000000     I189
    0.2927080633415808    0.2500000000000000    0.2500000000000000     I190
    0.2927080633415808    0.2500000000000000    0.5833333333333334     I191
    0.2927080633415808    0.2500000000000000    0.9166666666666666     I192
    0.2927080633415808    0.5833333333333334    0.2500000000000000     I193
    0.2927080633415808    0.5833333333333334    0.5833333333333334     I194
    0.2927080633415808    0.5833333333333334    0.9166666666666666     I195
    0.2927080633415808    0.9166666666666666    0.2500000000000000     I196
    0.2927080633415808    0.9166666666666666    0.5833333333333334     I197
    0.2927080633415808    0.9166666666666666    0.9166666666666666     I198
    0.6260413966749141    0.2500000000000000    0.2500000000000000     I199
    0.6260413966749141    0.2500000000000000    0.5833333333333334     I200
    0.6260413966749141    0.2500000000000000    0.9166666666666666     I201
    0.6260413966749141    0.5833333333333334    0.2500000000000000     I202
    0.6260413966749141    0.5833333333333334    0.5833333333333334     I203
    0.6260413966749141    0.5833333333333334    0.9166666666666666     I204
    0.6260413966749141    0.9166666666666666    0.2500000000000000     I205
    0.6260413966749141    0.9166666666666666    0.5833333333333334     I206
    0.6260413966749141    0.9166666666666666    0.9166666666666666     I207
    0.9593747300082475    0.2500000000000000    0.2500000000000000     I208
    0.9593747300082475    0.2500000000000000    0.5833333333333334     I209
    0.9593747300082475    0.2500000000000000    0.9166666666666666     I210
    0.9593747300082475    0.5833333333333334    0.2500000000000000     I211
    0.9593747300082475    0.5833333333333334    0.5833333333333334     I212
    0.9593747300082475    0.5833333333333334    0.9166666666666666     I213
    0.9593747300082475    0.9166666666666666    0.2500000000000000     I214
    0.9593747300082475    0.9166666666666666    0.5833333333333334     I215
    0.9593747300082475    0.9166666666666666    0.9166666666666666     I216
    0.0000000000000000    0.1260413966749141    0.0000000000000000     I217
    0.0000000000000000    0.1260413966749141    0.3333333333333334     I218
    0.0000000000000000    0.1260413966749141    0.6666666666666667     I219
    0.0000000000000000    0.4593747300082475    0.0000000000000000     I220
    0.0000000000000000    0.4593747300082475    0.3333333333333334     I221
    0.0000000000000000    0.4593747300082475    0.6666666666666667     I222
    0.0000000000000000    0.7927080633415808    0.0000000000000000     I223
    0.0000000000000000    0.7927080633415808    0.3333333333333334     I224
    0.0000000000000000    0.7927080633415808    0.6666666666666667     I225
    0.3333333333333334    0.1260413966749141    0.0000000000000000     I226
    0.3333333333333334    0.1260413966749141    0.3333333333333334     I227
    0.3333333333333334    0.1260413966749141    0.6666666666666667     I228
    0.3333333333333334    0.4593747300082475    0.0000000000000000     I229
    0.3333333333333334    0.4593747300082475    0.3333333333333334     I230
    0.3333333333333334    0.4593747300082475    0.6666666666666667     I231
    0.3333333333333334    0.7927080633415808    0.0000000000000000     I232
    0.3333333333333334    0.7927080633415808    0.3333333333333334     I233
    0.3333333333333334    0.7927080633415808    0.6666666666666667     I234
    0.6666666666666667    0.1260413966749141    0.0000000000000000     I235
    0.6666666666666667    0.1260413966749141    0.3333333333333334     I236
    0.6666666666666667    0.1260413966749141    0.6666666666666667     I237
    0.6666666666666667    0.4593747300082475    0.0000000000000000     I238
    0.6666666666666667    0.4593747300082475    0.3333333333333334     I239
    0.6666666666666667    0.4593747300082475    0.6666666666666667     I240
    0.6666666666666667    0.7927080633415808    0.0000000000000000     I241
    0.6666666666666667    0.7927080633415808    0.3333333333333334     I242
    0.6666666666666667    0.7927080633415808    0.6666666666666667     I243
    0.0000000000000000    0.1260413966749141    0.1666666666666667     I244
    0.0000000000000000    0.1260413966749141    0.5000000000000000     I245
    0.0000000000000000    0.1260413966749141    0.8333333333333334     I246
    0.0000000000000000    0.4593747300082475    0.1666666666666667     I247
    0.0000000000000000    0.4593747300082475    0.5000000000000000     I248
    0.0000000000000000    0.4593747300082475    0.8333333333333334     I249
    0.0000000000000000    0.7927080633415808    0.1666666666666667     I250
    0.0000000000000000    0.7927080633415808    0.5000000000000000     I251
    0.0000000000000000    0.7927080633415808    0.8333333333333334     I252
    0.3333333333333334    0.1260413966749141    0.1666666666666667     I253
    0.3333333333333334    0.1260413966749141    0.5000000000000000     I254
    0.3333333333333334    0.1260413966749141    0.8333333333333334     I255
    0.3333333333333334    0.4593747300082475    0.1666666666666667     I256
    0.3333333333333334    0.4593747300082475    0.5000000000000000     I257
    0.3333333333333334    0.4593747300082475    0.8333333333333334     I258
    0.3333333333333334    0.7927080633415808    0.1666666666666667     I259
    0.3333333333333334    0.7927080633415808    0.5000000000000000     I260
    0.3333333333333334    0.7927080633415808    0.8333333333333334     I261
    0.6666666666666667    0.1260413966749141    0.1666666666666667     I262
    0.6666666666666667    0.1260413966749141    0.5000000000000000     I263
    0.6666666666666667    0.1260413966749141    0.8333333333333334     I264
    0.6666666666666667    0.4593747300082475    0.1666666666666667     I265
    0.6666666666666667    0.4593747300082475    0.5000000000000000     I266
    0.6666666666666667    0.4593747300082475    0.8333333333333334     I267
    0.6666666666666667    0.7927080633415808    0.1666666666666667     I268
    0.6666666666666667    0.7927080633415808    0.5000000000000000     I269
    0.6666666666666667    0.7927080633415808    0.8333333333333334     I270
    0.0000000000000000    0.2927080633415808    0.0000000000000000     I271
    0.0000000000000000    0.2927080633415808    0.3333333333333334     I272
    0.0000000000000000    0.2927080633415808    0.6666666666666667     I273
    0.0000000000000000    0.6260413966749141    0.0000000000000000     I274
    0.0000000000000000    0.6260413966749141    0.3333333333333334     I275
    0.0000000000000000    0.6260413966749141    0.6666666666666667     I276
    0.0000000000000000    0.9593747300082475    0.0000000000000000     I277
    0.0000000000000000    0.9593747300082475    0.3333333333333334     I278
    0.0000000000000000    0.9593747300082475    0.6666666666666667     I279
    0.3333333333333334    0.2927080633415808    0.0000000000000000     I280
    0.3333333333333334    0.2927080633415808    0.3333333333333334     I281
    0.3333333333333334    0.2927080633415808    0.6666666666666667     I282
    0.3333333333333334    0.6260413966749141    0.0000000000000000     I283
    0.3333333333333334    0.6260413966749141    0.3333333333333334     I284
    0.3333333333333334    0.6260413966749141    0.6666666666666667     I285
    0.3333333333333334    0.9593747300082475    0.0000000000000000     I286
    0.3333333333333334    0.9593747300082475    0.3333333333333334     I287
    0.3333333333333334    0.9593747300082475    0.6666666666666667     I288
    0.6666666666666667    0.2927080633415808    0.0000000000000000     I289
    0.6666666666666667    0.2927080633415808    0.3333333333333334     I290
    0.6666666666666667    0.2927080633415808    0.6666666666666667     I291
    0.6666666666666667    0.6260413966749141    0.0000000000000000     I292
    0.6666666666666667    0.6260413966749141    0.3333333333333334     I293
    0.6666666666666667    0.6260413966749141    0.6666666666666667     I294
    0.6666666666666667    0.9593747300082475    0.0000000000000000     I295
    0.6666666666666667    0.9593747300082475    0.3333333333333334     I296
    0.6666666666666667    0.9593747300082475    0.6666666666666667     I297
    0.0000000000000000    0.2927080633415808    0.1666666666666667     I298
    0.0000000000000000    0.2927080633415808    0.5000000000000000     I299
    0.0000000000000000    0.2927080633415808    0.8333333333333334     I300
    0.0000000000000000    0.6260413966749141    0.1666666666666667     I301
    0.0000000000000000    0.6260413966749141    0.5000000000000000     I302
    0.0000000000000000    0.6260413966749141    0.8333333333333334     I303
    0.0000000000000000    0.9593747300082475    0.1666666666666667     I304
    0.0000000000000000    0.9593747300082475    0.5000000000000000     I305
    0.0000000000000000    0.9593747300082475    0.8333333333333334     I306
    0.3333333333333334    0.2927080633415808    0.1666666666666667     I307
    0.3333333333333334    0.2927080633415808    0.5000000000000000     I308
    0.3333333333333334    0.2927080633415808    0.8333333333333334     I309
    0.3333333333333334    0.6260413966749141    0.1666666666666667     I310
    0.3333333333333334    0.6260413966749141    0.5000000000000000     I311
    0.3333333333333334    0.6260413966749141    0.8333333333333334     I312
    0.3333333333333334    0.9593747300082475    0.1666666666666667     I313
    0.3333333333333334    0.9593747300082475    0.5000000000000000     I314
    0.3333333333333334    0.9593747300082475    0.8333333333333334     I315
    0.6666666666666667    0.2927080633415808    0.1666666666666667     I316
    0.6666666666666667    0.2927080633415808    0.5000000000000000     I317
    0.6666666666666667    0.2927080633415808    0.8333333333333334     I318
    0.6666666666666667    0.6260413966749141    0.1666666666666667     I319
    0.6666666666666667    0.6260413966749141    0.5000000000000000     I320
    0.6666666666666667    0.6260413966749141    0.8333333333333334     I321
    0.6666666666666667    0.9593747300082475    0.1666666666666667     I322
    0.6666666666666667    0.9593747300082475    0.5000000000000000     I323
    0.6666666666666667    0.9593747300082475    0.8333333333333334     I324
    0.1666666666666667    0.1260413966749141    0.0000000000000000     I325
    0.1666666666666667    0.1260413966749141    0.3333333333333334     I326
    0.1666666666666667    0.1260413966749141    0.6666666666666667     I327
    0.1666666666666667    0.4593747300082475    0.0000000000000000     I328
    0.1666666666666667    0.4593747300082475    0.3333333333333334     I329
    0.1666666666666667    0.4593747300082475    0.6666666666666667     I330
    0.1666666666666667    0.7927080633415808    0.0000000000000000     I331
    0.1666666666666667    0.7927080633415808    0.3333333333333334     I332
    0.1666666666666667    0.7927080633415808    0.6666666666666667     I333
    0.5000000000000000    0.1260413966749141    0.0000000000000000     I334
    0.5000000000000000    0.1260413966749141    0.3333333333333334     I335
    0.5000000000000000    0.1260413966749141    0.6666666666666667     I336
    0.5000000000000000    0.4593747300082475    0.0000000000000000     I337
    0.5000000000000000    0.4593747300082475    0.3333333333333334     I338
    0.5000000000000000    0.4593747300082475    0.6666666666666667     I339
    0.5000000000000000    0.7927080633415808    0.0000000000000000     I340
    0.5000000000000000    0.7927080633415808    0.3333333333333334     I341
    0.5000000000000000    0.7927080633415808    0.6666666666666667     I342
    0.8333333333333334    0.1260413966749141    0.0000000000000000     I343
    0.8333333333333334    0.1260413966749141    0.3333333333333334     I344
    0.8333333333333334    0.1260413966749141    0.6666666666666667     I345
    0.8333333333333334    0.4593747300082475    0.0000000000000000     I346
    0.8333333333333334    0.4593747300082475    0.3333333333333334     I347
    0.8333333333333334    0.4593747300082475    0.6666666666666667     I348
    0.8333333333333334    0.7927080633415808    0.0000000000000000     I349
    0.8333333333333334    0.7927080633415808    0.3333333333333334     I350
    0.8333333333333334    0.7927080633415808    0.6666666666666667     I351
    0.1666666666666667    0.1260413966749141    0.1666666666666667     I352
    0.1666666666666667    0.1260413966749141    0.5000000000000000     I353
    0.1666666666666667    0.1260413966749141    0.8333333333333334     I354
    0.1666666666666667    0.4593747300082475    0.1666666666666667     I355
    0.1666666666666667    0.4593747300082475    0.5000000000000000     I356
    0.1666666666666667    0.4593747300082475    0.8333333333333334     I357
    0.1666666666666667    0.7927080633415808    0.1666666666666667     I358
    0.1666666666666667    0.7927080633415808    0.5000000000000000     I359
    0.1666666666666667    0.7927080633415808    0.8333333333333334     I360
    0.5000000000000000    0.1260413966749141    0.1666666666666667     I361
    0.5000000000000000    0.1260413966749141    0.5000000000000000     I362
    0.5000000000000000    0.1260413966749141    0.8333333333333334     I363
    0.5000000000000000    0.4593747300082475    0.1666666666666667     I364
    0.5000000000000000    0.4593747300082475    0.5000000000000000     I365
    0.5000000000000000    0.4593747300082475    0.8333333333333334     I366
    0.5000000000000000    0.7927080633415808    0.1666666666666667     I367
    0.5000000000000000    0.7927080633415808    0.5000000000000000     I368
    0.5000000000000000    0.7927080633415808    0.8333333333333334     I369
    0.8333333333333334    0.1260413966749141    0.1666666666666667     I370
    0.8333333333333334    0.1260413966749141    0.5000000000000000     I371
    0.8333333333333334    0.1260413966749141    0.8333333333333334     I372
    0.8333333333333334    0.4593747300082475    0.1666666666666667     I373
    0.8333333333333334    0.4593747300082475    0.5000000000000000     I374
    0.8333333333333334    0.4593747300082475    0.8333333333333334     I375
    0.8333333333333334    0.7927080633415808    0.1666666666666667     I376
    0.8333333333333334    0.7927080633415808    0.5000000000000000     I377
    0.8333333333333334    0.7927080633415808    0.8333333333333334     I378
    0.1666666666666667    0.2927080633415808    0.0000000000000000     I379
    0.1666666666666667    0.2927080633415808    0.3333333333333334     I380
    0.1666666666666667    0.2927080633415808    0.6666666666666667     I381
    0.1666666666666667    0.6260413966749141    0.0000000000000000     I382
    0.1666666666666667    0.6260413966749141    0.3333333333333334     I383
    0.1666666666666667    0.6260413966749141    0.6666666666666667     I384
    0.1666666666666667    0.9593747300082475    0.0000000000000000     I385
    0.1666666666666667    0.9593747300082475    0.3333333333333334     I386
    0.1666666666666667    0.9593747300082475    0.6666666666666667     I387
    0.5000000000000000    0.2927080633415808    0.0000000000000000     I388
    0.5000000000000000    0.2927080633415808    0.3333333333333334     I389
    0.5000000000000000    0.2927080633415808    0.6666666666666667     I390
    0.5000000000000000    0.6260413966749141    0.0000000000000000     I391
    0.5000000000000000    0.6260413966749141    0.3333333333333334     I392
    0.5000000000000000    0.6260413966749141    0.6666666666666667     I393
    0.5000000000000000    0.9593747300082475    0.0000000000000000     I394
    0.5000000000000000    0.9593747300082475    0.3333333333333334     I395
    0.5000000000000000    0.9593747300082475    0.6666666666666667     I396
    0.8333333333333334    0.2927080633415808    0.0000000000000000     I397
    0.8333333333333334    0.2927080633415808    0.3333333333333334     I398
    0.8333333333333334    0.2927080633415808    0.6666666666666667     I399
    0.8333333333333334    0.6260413966749141    0.0000000000000000     I400
    0.8333333333333334    0.6260413966749141    0.3333333333333334     I401
    0.8333333333333334    0.6260413966749141    0.6666666666666667     I402
    0.8333333333333334    0.9593747300082475    0.0000000000000000     I403
    0.8333333333333334    0.9593747300082475    0.3333333333333334     I404
    0.8333333333333334    0.9593747300082475    0.6666666666666667     I405
    0.1666666666666667    0.2927080633415808    0.1666666666666667     I406
    0.1666666666666667    0.2927080633415808    0.5000000000000000     I407
    0.1666666666666667    0.2927080633415808    0.8333333333333334     I408
    0.1666666666666667    0.6260413966749141    0.1666666666666667     I409
    0.1666666666666667    0.6260413966749141    0.5000000000000000     I410
    0.1666666666666667    0.6260413966749141    0.8333333333333334     I411
    0.1666666666666667    0.9593747300082475    0.1666666666666667     I412
    0.1666666666666667    0.9593747300082475    0.5000000000000000     I413
    0.1666666666666667    0.9593747300082475    0.8333333333333334     I414
    0.5000000000000000    0.2927080633415808    0.1666666666666667     I415
    0.5000000000000000    0.2927080633415808    0.5000000000000000     I416
    0.5000000000000000    0.2927080633415808    0.8333333333333334     I417
    0.5000000000000000    0.6260413966749141    0.1666666666666667     I418
    0.5000000000000000    0.6260413966749141    0.5000000000000000     I419
    0.5000000000000000    0.6260413966749141    0.8333333333333334     I420
    0.5000000000000000    0.9593747300082475    0.1666666666666667     I421
    0.5000000000000000    0.9593747300082475    0.5000000000000000     I422
    0.5000000000000000    0.9593747300082475    0.8333333333333334     I423
    0.8333333333333334    0.2927080633415808    0.1666666666666667     I424
    0.8333333333333334    0.2927080633415808    0.5000000000000000     I425
    0.8333333333333334    0.2927080633415808    0.8333333333333334     I426
    0.8333333333333334    0.6260413966749141    0.1666666666666667     I427
    0.8333333333333334    0.6260413966749141    0.5000000000000000     I428
    0.8333333333333334    0.6260413966749141    0.8333333333333334     I429
    0.8333333333333334    0.9593747300082475    0.1666666666666667     I430
    0.8333333333333334    0.9593747300082475    0.5000000000000000     I431
    0.8333333333333334    0.9593747300082475    0.8333333333333334     I432
    0.0000000000000000    0.0406252699917526    0.0000000000000000     I433
    0.0000000000000000    0.0406252699917526    0.3333333333333334     I434
    0.0000000000000000    0.0406252699917526    0.6666666666666667     I435
    0.0000000000000000    0.3739586033250859    0.0000000000000000     I436
    0.0000000000000000    0.3739586033250859    0.3333333333333334     I437
    0.0000000000000000    0.3739586033250859    0.6666666666666667     I438
    0.0000000000000000    0.7072919366584193    0.0000000000000000     I439
    0.0000000000000000    0.7072919366584193    0.3333333333333334     I440
    0.0000000000000000    0.7072919366584193    0.6666666666666667     I441
    0.3333333333333334    0.0406252699917526    0.0000000000000000     I442
    0.3333333333333334    0.0406252699917526    0.3333333333333334     I443
    0.3333333333333334    0.0406252699917526    0.6666666666666667     I444
    0.3333333333333334    0.3739586033250859    0.0000000000000000     I445
    0.3333333333333334    0.3739586033250859    0.3333333333333334     I446
    0.3333333333333334    0.3739586033250859    0.6666666666666667     I447
    0.3333333333333334    0.7072919366584193    0.0000000000000000     I448
    0.3333333333333334    0.7072919366584193    0.3333333333333334     I449
    0.3333333333333334    0.7072919366584193    0.6666666666666667     I450
    0.6666666666666667    0.0406252699917526    0.0000000000000000     I451
    0.6666666666666667    0.0406252699917526    0.3333333333333334     I452
    0.6666666666666667    0.0406252699917526    0.6666666666666667     I453
    0.6666666666666667    0.3739586033250859    0.0000000000000000     I454
    0.6666666666666667    0.3739586033250859    0.3333333333333334     I455
    0.6666666666666667    0.3739586033250859    0.6666666666666667     I456
    0.6666666666666667    0.7072919366584193    0.0000000000000000     I457
    0.6666666666666667    0.7072919366584193    0.3333333333333334     I458
    0.6666666666666667    0.7072919366584193    0.6666666666666667     I459
    0.0000000000000000    0.0406252699917526    0.1666666666666667     I460
    0.0000000000000000    0.0406252699917526    0.5000000000000000     I461
    0.0000000000000000    0.0406252699917526    0.8333333333333334     I462
    0.0000000000000000    0.3739586033250859    0.1666666666666667     I463
    0.0000000000000000    0.3739586033250859    0.5000000000000000     I464
    0.0000000000000000    0.3739586033250859    0.8333333333333334     I465
    0.0000000000000000    0.7072919366584193    0.1666666666666667     I466
    0.0000000000000000    0.7072919366584193    0.5000000000000000     I467
    0.0000000000000000    0.7072919366584193    0.8333333333333334     I468
    0.3333333333333334    0.0406252699917526    0.1666666666666667     I469
    0.3333333333333334    0.0406252699917526    0.5000000000000000     I470
    0.3333333333333334    0.0406252699917526    0.8333333333333334     I471
    0.3333333333333334    0.3739586033250859    0.1666666666666667     I472
    0.3333333333333334    0.3739586033250859    0.5000000000000000     I473
    0.3333333333333334    0.3739586033250859    0.8333333333333334     I474
    0.3333333333333334    0.7072919366584193    0.1666666666666667     I475
    0.3333333333333334    0.7072919366584193    0.5000000000000000     I476
    0.3333333333333334    0.7072919366584193    0.8333333333333334     I477
    0.6666666666666667    0.0406252699917526    0.1666666666666667     I478
    0.6666666666666667    0.0406252699917526    0.5000000000000000     I479
    0.6666666666666667    0.0406252699917526    0.8333333333333334     I480
    0.6666666666666667    0.3739586033250859    0.1666666666666667     I481
    0.6666666666666667    0.3739586033250859    0.5000000000000000     I482
    0.6666666666666667    0.3739586033250859    0.8333333333333334     I483
    0.6666666666666667    0.7072919366584193    0.1666666666666667     I484
    0.6666666666666667    0.7072919366584193    0.5000000000000000     I485
    0.6666666666666667    0.7072919366584193    0.8333333333333334     I486
    0.0000000000000000    0.2072919366584193    0.0000000000000000     I487
    0.0000000000000000    0.2072919366584193    0.3333333333333334     I488
    0.0000000000000000    0.2072919366584193    0.6666666666666667     I489
    0.0000000000000000    0.5406252699917526    0.0000000000000000     I490
    0.0000000000000000    0.5406252699917526    0.3333333333333334     I491
    0.0000000000000000    0.5406252699917526    0.6666666666666667     I492
    0.0000000000000000    0.8739586033250859    0.0000000000000000     I493
    0.0000000000000000    0.8739586033250859    0.3333333333333334     I494
    0.0000000000000000    0.8739586033250859    0.6666666666666667     I495
    0.3333333333333334    0.2072919366584193    0.0000000000000000     I496
    0.3333333333333334    0.2072919366584193    0.3333333333333334     I497
    0.3333333333333334    0.2072919366584193    0.6666666666666667     I498
    0.3333333333333334    0.5406252699917526    0.0000000000000000     I499
    0.3333333333333334    0.5406252699917526    0.3333333333333334     I500
    0.3333333333333334    0.5406252699917526    0.6666666666666667     I501
    0.3333333333333334    0.8739586033250859    0.0000000000000000     I502
    0.3333333333333334    0.8739586033250859    0.3333333333333334     I503
    0.3333333333333334    0.8739586033250859    0.6666666666666667     I504
    0.6666666666666667    0.2072919366584193    0.0000000000000000     I505
    0.6666666666666667    0.2072919366584193    0.3333333333333334     I506
    0.6666666666666667    0.2072919366584193    0.6666666666666667     I507
    0.6666666666666667    0.5406252699917526    0.0000000000000000     I508
    0.6666666666666667    0.5406252699917526    0.3333333333333334     I509
    0.6666666666666667    0.5406252699917526    0.6666666666666667     I510
    0.6666666666666667    0.8739586033250859    0.0000000000000000     I511
    0.6666666666666667    0.8739586033250859    0.3333333333333334     I512
    0.6666666666666667    0.8739586033250859    0.6666666666666667     I513
    0.0000000000000000    0.2072919366584193    0.1666666666666667     I514
    0.0000000000000000    0.2072919366584193    0.5000000000000000     I515
    0.0000000000000000    0.2072919366584193    0.8333333333333334     I516
    0.0000000000000000    0.5406252699917526    0.1666666666666667     I517
    0.0000000000000000    0.5406252699917526    0.5000000000000000     I518
    0.0000000000000000    0.5406252699917526    0.8333333333333334     I519
    0.0000000000000000    0.8739586033250859    0.1666666666666667     I520
    0.0000000000000000    0.8739586033250859    0.5000000000000000     I521
    0.0000000000000000    0.8739586033250859    0.8333333333333334     I522
    0.3333333333333334    0.2072919366584193    0.1666666666666667     I523
    0.3333333333333334    0.2072919366584193    0.5000000000000000     I524
    0.3333333333333334    0.2072919366584193    0.8333333333333334     I525
    0.3333333333333334    0.5406252699917526    0.1666666666666667     I526
    0.3333333333333334    0.5406252699917526    0.5000000000000000     I527
    0.3333333333333334    0.5406252699917526    0.8333333333333334     I528
    0.3333333333333334    0.8739586033250859    0.1666666666666667     I529
    0.3333333333333334    0.8739586033250859    0.5000000000000000     I530
    0.3333333333333334    0.8739586033250859    0.8333333333333334     I531
    0.6666666666666667    0.2072919366584193    0.1666666666666667     I532
    0.6666666666666667    0.2072919366584193    0.5000000000000000     I533
    0.6666666666666667    0.2072919366584193    0.8333333333333334     I534
    0.6666666666666667    0.5406252699917526    0.1666666666666667     I535
    0.6666666666666667    0.5406252699917526    0.5000000000000000     I536
    0.6666666666666667    0.5406252699917526    0.8333333333333334     I537
    0.6666666666666667    0.8739586033250859    0.1666666666666667     I538
    0.6666666666666667    0.8739586033250859    0.5000000000000000     I539
    0.6666666666666667    0.8739586033250859    0.8333333333333334     I540
    0.1666666666666667    0.0406252699917526    0.0000000000000000     I541
    0.1666666666666667    0.0406252699917526    0.3333333333333334     I542
    0.1666666666666667    0.0406252699917526    0.6666666666666667     I543
    0.1666666666666667    0.3739586033250859    0.0000000000000000     I544
    0.1666666666666667    0.3739586033250859    0.3333333333333334     I545
    0.1666666666666667    0.3739586033250859    0.6666666666666667     I546
    0.1666666666666667    0.7072919366584193    0.0000000000000000     I547
    0.1666666666666667    0.7072919366584193    0.3333333333333334     I548
    0.1666666666666667    0.7072919366584193    0.6666666666666667     I549
    0.5000000000000000    0.0406252699917526    0.0000000000000000     I550
    0.5000000000000000    0.0406252699917526    0.3333333333333334     I551
    0.5000000000000000    0.0406252699917526    0.6666666666666667     I552
    0.5000000000000000    0.3739586033250859    0.0000000000000000     I553
    0.5000000000000000    0.3739586033250859    0.3333333333333334     I554
    0.5000000000000000    0.3739586033250859    0.6666666666666667     I555
    0.5000000000000000    0.7072919366584193    0.0000000000000000     I556
    0.5000000000000000    0.7072919366584193    0.3333333333333334     I557
    0.5000000000000000    0.7072919366584193    0.6666666666666667     I558
    0.8333333333333334    0.0406252699917526    0.0000000000000000     I559
    0.8333333333333334    0.0406252699917526    0.3333333333333334     I560
    0.8333333333333334    0.0406252699917526    0.6666666666666667     I561
    0.8333333333333334    0.3739586033250859    0.0000000000000000     I562
    0.8333333333333334    0.3739586033250859    0.3333333333333334     I563
    0.8333333333333334    0.3739586033250859    0.6666666666666667     I564
    0.8333333333333334    0.7072919366584193    0.0000000000000000     I565
    0.8333333333333334    0.7072919366584193    0.3333333333333334     I566
    0.8333333333333334    0.7072919366584193    0.6666666666666667     I567
    0.1666666666666667    0.0406252699917526    0.1666666666666667     I568
    0.1666666666666667    0.0406252699917526    0.5000000000000000     I569
    0.1666666666666667    0.0406252699917526    0.8333333333333334     I570
    0.1666666666666667    0.3739586033250859    0.1666666666666667     I571
    0.1666666666666667    0.3739586033250859    0.5000000000000000     I572
    0.1666666666666667    0.3739586033250859    0.8333333333333334     I573
    0.1666666666666667    0.7072919366584193    0.1666666666666667     I574
    0.1666666666666667    0.7072919366584193    0.5000000000000000     I575
    0.1666666666666667    0.7072919366584193    0.8333333333333334     I576
    0.5000000000000000    0.0406252699917526    0.1666666666666667     I577
    0.5000000000000000    0.0406252699917526    0.5000000000000000     I578
    0.5000000000000000    0.0406252699917526    0.8333333333333334     I579
    0.5000000000000000    0.3739586033250859    0.1666666666666667     I580
    0.5000000000000000    0.3739586033250859    0.5000000000000000     I581
    0.5000000000000000    0.3739586033250859    0.8333333333333334     I582
    0.5000000000000000    0.7072919366584193    0.1666666666666667     I583
    0.5000000000000000    0.7072919366584193    0.5000000000000000     I584
    0.5000000000000000    0.7072919366584193    0.8333333333333334     I585
    0.8333333333333334    0.0406252699917526    0.1666666666666667     I586
    0.8333333333333334    0.0406252699917526    0.5000000000000000     I587
    0.8333333333333334    0.0406252699917526    0.8333333333333334     I588
    0.8333333333333334    0.3739586033250859    0.1666666666666667     I589
    0.8333333333333334    0.3739586033250859    0.5000000000000000     I590
    0.8333333333333334    0.3739586033250859    0.8333333333333334     I591
    0.8333333333333334    0.7072919366584193    0.1666666666666667     I592
    0.8333333333333334    0.7072919366584193    0.5000000000000000     I593
    0.8333333333333334    0.7072919366584193    0.8333333333333334     I594
    0.1666666666666667    0.2072919366584193    0.0000000000000000     I595
    0.1666666666666667    0.2072919366584193    0.3333333333333334     I596
    0.1666666666666667    0.2072919366584193    0.6666666666666667     I597
    0.1666666666666667    0.5406252699917526    0.0000000000000000     I598
    0.1666666666666667    0.5406252699917526    0.3333333333333334     I599
    0.1666666666666667    0.5406252699917526    0.6666666666666667     I600
    0.1666666666666667    0.8739586033250859    0.0000000000000000     I601
    0.1666666666666667    0.8739586033250859    0.3333333333333334     I602
    0.1666666666666667    0.8739586033250859    0.6666666666666667     I603
    0.5000000000000000    0.2072919366584193    0.0000000000000000     I604
    0.5000000000000000    0.2072919366584193    0.3333333333333334     I605
    0.5000000000000000    0.2072919366584193    0.6666666666666667     I606
    0.5000000000000000    0.5406252699917526    0.0000000000000000     I607
    0.5000000000000000    0.5406252699917526    0.3333333333333334     I608
    0.5000000000000000    0.5406252699917526    0.6666666666666667     I609
    0.5000000000000000    0.8739586033250859    0.0000000000000000     I610
    0.5000000000000000    0.8739586033250859    0.3333333333333334     I611
    0.5000000000000000    0.8739586033250859    0.6666666666666667     I612
    0.8333333333333334    0.2072919366584193    0.0000000000000000     I613
    0.8333333333333334    0.2072919366584193    0.3333333333333334     I614
    0.8333333333333334    0.2072919366584193    0.6666666666666667     I615
    0.8333333333333334    0.5406252699917526    0.0000000000000000     I616
    0.8333333333333334    0.5406252699917526    0.3333333333333334     I617
    0.8333333333333334    0.5406252699917526    0.6666666666666667     I618
    0.8333333333333334    0.8739586033250859    0.0000000000000000     I619
    0.8333333333333334    0.8739586033250859    0.3333333333333334     I620
    0.8333333333333334    0.8739586033250859    0.6666666666666667     I621
    0.1666666666666667    0.2072919366584193    0.1666666666666667     I622
    0.1666666666666667    0.2072919366584193    0.5000000000000000     I623
    0.1666666666666667    0.2072919366584193    0.8333333333333334     I624
    0.1666666666666667    0.5406252699917526    0.1666666666666667     I625
    0.1666666666666667    0.5406252699917526    0.5000000000000000     I626
    0.1666666666666667    0.5406252699917526    0.8333333333333334     I627
    0.1666666666666667    0.8739586033250859    0.1666666666666667     I628
    0.1666666666666667    0.8739586033250859    0.5000000000000000     I629
    0.1666666666666667    0.8739586033250859    0.8333333333333334     I630
    0.5000000000000000    0.2072919366584193    0.1666666666666667     I631
    0.5000000000000000    0.2072919366584193    0.5000000000000000     I632
    0.5000000000000000    0.2072919366584193    0.8333333333333334     I633
    0.5000000000000000    0.5406252699917526    0.1666666666666667     I634
    0.5000000000000000    0.5406252699917526    0.5000000000000000     I635
    0.5000000000000000    0.5406252699917526    0.8333333333333334     I636
    0.5000000000000000    0.8739586033250859    0.1666666666666667     I637
    0.5000000000000000    0.8739586033250859    0.5000000000000000     I638
    0.5000000000000000    0.8739586033250859    0.8333333333333334     I639
    0.8333333333333334    0.2072919366584193    0.1666666666666667     I640
    0.8333333333333334    0.2072919366584193    0.5000000000000000     I641
    0.8333333333333334    0.2072919366584193    0.8333333333333334     I642
    0.8333333333333334    0.5406252699917526    0.1666666666666667     I643
    0.8333333333333334    0.5406252699917526    0.5000000000000000     I644
    0.8333333333333334    0.5406252699917526    0.8333333333333334     I645
    0.8333333333333334    0.8739586033250859    0.1666666666666667     I646
    0.8333333333333334    0.8739586033250859    0.5000000000000000     I647
    0.8333333333333334    0.8739586033250859    0.8333333333333334     I648
    0.1239586033250859    0.0833333333333334    0.0000000000000000     I649
    0.1239586033250859    0.0833333333333334    0.3333333333333334     I650
    0.1239586033250859    0.0833333333333334    0.6666666666666667     I651
    0.1239586033250859    0.4166666666666667    0.0000000000000000     I652
    0.1239586033250859    0.4166666666666667    0.3333333333333334     I653
    0.1239586033250859    0.4166666666666667    0.6666666666666667     I654
    0.1239586033250859    0.7500000000000000    0.0000000000000000     I655
    0.1239586033250859    0.7500000000000000    0.3333333333333334     I656
    0.1239586033250859    0.7500000000000000    0.6666666666666667     I657
    0.4572919366584193    0.0833333333333334    0.0000000000000000     I658
    0.4572919366584193    0.0833333333333334    0.3333333333333334     I659
    0.4572919366584193    0.0833333333333334    0.6666666666666667     I660
    0.4572919366584193    0.4166666666666667    0.0000000000000000     I661
    0.4572919366584193    0.4166666666666667    0.3333333333333334     I662
    0.4572919366584193    0.4166666666666667    0.6666666666666667     I663
    0.4572919366584193    0.7500000000000000    0.0000000000000000     I664
    0.4572919366584193    0.7500000000000000    0.3333333333333334     I665
    0.4572919366584193    0.7500000000000000    0.6666666666666667     I666
    0.7906252699917526    0.0833333333333334    0.0000000000000000     I667
    0.7906252699917526    0.0833333333333334    0.3333333333333334     I668
    0.7906252699917526    0.0833333333333334    0.6666666666666667     I669
    0.7906252699917526    0.4166666666666667    0.0000000000000000     I670
    0.7906252699917526    0.4166666666666667    0.3333333333333334     I671
    0.7906252699917526    0.4166666666666667    0.6666666666666667     I672
    0.7906252699917526    0.7500000000000000    0.0000000000000000     I673
    0.7906252699917526    0.7500000000000000    0.3333333333333334     I674
    0.7906252699917526    0.7500000000000000    0.6666666666666667     I675
    0.1239586033250859    0.0833333333333334    0.1666666666666667     I676
    0.1239586033250859    0.0833333333333334    0.5000000000000000     I677
    0.1239586033250859    0.0833333333333334    0.8333333333333334     I678
    0.1239586033250859    0.4166666666666667    0.1666666666666667     I679
    0.1239586033250859    0.4166666666666667    0.5000000000000000     I680
    0.1239586033250859    0.4166666666666667    0.8333333333333334     I681
    0.1239586033250859    0.7500000000000000    0.1666666666666667     I682
    0.1239586033250859    0.7500000000000000    0.5000000000000000     I683
    0.1239586033250859    0.7500000000000000    0.8333333333333334     I684
    0.4572919366584193    0.0833333333333334    0.1666666666666667     I685
    0.4572919366584193    0.0833333333333334    0.5000000000000000     I686
    0.4572919366584193    0.0833333333333334    0.8333333333333334     I687
    0.4572919366584193    0.4166666666666667    0.1666666666666667     I688
    0.4572919366584193    0.4166666666666667    0.5000000000000000     I689
    0.4572919366584193    0.4166666666666667    0.8333333333333334     I690
    0.4572919366584193    0.7500000000000000    0.1666666666666667     I691
    0.4572919366584193    0.7500000000000000    0.5000000000000000     I692
    0.4572919366584193    0.7500000000000000    0.8333333333333334     I693
    0.7906252699917526    0.0833333333333334    0.1666666666666667     I694
    0.7906252699917526    0.0833333333333334    0.5000000000000000     I695
    0.7906252699917526    0.0833333333333334    0.8333333333333334     I696
    0.7906252699917526    0.4166666666666667    0.1666666666666667     I697
    0.7906252699917526    0.4166666666666667    0.5000000000000000     I698
    0.7906252699917526    0.4166666666666667    0.8333333333333334     I699
    0.7906252699917526    0.7500000000000000    0.1666666666666667     I700
    0.7906252699917526    0.7500000000000000    0.5000000000000000     I701
    0.7906252699917526    0.7500000000000000    0.8333333333333334     I702
    0.1239586033250859    0.2500000000000000    0.0000000000000000     I703
    0.1239586033250859    0.2500000000000000    0.3333333333333334     I704
    0.1239586033250859    0.2500000000000000    0.6666666666666667     I705
    0.1239586033250859    0.5833333333333334    0.0000000000000000     I706
    0.1239586033250859    0.5833333333333334    0.3333333333333334     I707
    0.1239586033250859    0.5833333333333334    0.6666666666666667     I708
    0.1239586033250859    0.9166666666666666    0.0000000000000000     I709
    0.1239586033250859    0.9166666666666666    0.3333333333333334     I710
    0.1239586033250859    0.9166666666666666    0.6666666666666667     I711
    0.4572919366584193    0.2500000000000000    0.0000000000000000     I712
    0.4572919366584193    0.2500000000000000    0.3333333333333334     I713
    0.4572919366584193    0.2500000000000000    0.6666666666666667     I714
    0.4572919366584193    0.5833333333333334    0.0000000000000000     I715
    0.4572919366584193    0.5833333333333334    0.3333333333333334     I716
    0.4572919366584193    0.5833333333333334    0.6666666666666667     I717
    0.4572919366584193    0.9166666666666666    0.0000000000000000     I718
    0.4572919366584193    0.9166666666666666    0.3333333333333334     I719
    0.4572919366584193    0.9166666666666666    0.6666666666666667     I720
    0.7906252699917526    0.2500000000000000    0.0000000000000000     I721
    0.7906252699917526    0.2500000000000000    0.3333333333333334     I722
    0.7906252699917526    0.2500000000000000    0.6666666666666667     I723
    0.7906252699917526    0.5833333333333334    0.0000000000000000     I724
    0.7906252699917526    0.5833333333333334    0.3333333333333334     I725
    0.7906252699917526    0.5833333333333334    0.6666666666666667     I726
    0.7906252699917526    0.9166666666666666    0.0000000000000000     I727
    0.7906252699917526    0.9166666666666666    0.3333333333333334     I728
    0.7906252699917526    0.9166666666666666    0.6666666666666667     I729
    0.1239586033250859    0.2500000000000000    0.1666666666666667     I730
    0.1239586033250859    0.2500000000000000    0.5000000000000000     I731
    0.1239586033250859    0.2500000000000000    0.8333333333333334     I732
    0.1239586033250859    0.5833333333333334    0.1666666666666667     I733
    0.1239586033250859    0.5833333333333334    0.5000000000000000     I734
    0.1239586033250859    0.5833333333333334    0.8333333333333334     I735
    0.1239586033250859    0.9166666666666666    0.1666666666666667     I736
    0.1239586033250859    0.9166666666666666    0.5000000000000000     I737
    0.1239586033250859    0.9166666666666666    0.8333333333333334     I738
    0.4572919366584193    0.2500000000000000    0.1666666666666667     I739
    0.4572919366584193    0.2500000000000000    0.5000000000000000     I740
    0.4572919366584193    0.2500000000000000    0.8333333333333334     I741
    0.4572919366584193    0.5833333333333334    0.1666666666666667     I742
    0.4572919366584193    0.5833333333333334    0.5000000000000000     I743
    0.4572919366584193    0.5833333333333334    0.8333333333333334     I744
    0.4572919366584193    0.9166666666666666    0.1666666666666667     I745
    0.4572919366584193    0.9166666666666666    0.5000000000000000     I746
    0.4572919366584193    0.9166666666666666    0.8333333333333334     I747
    0.7906252699917526    0.2500000000000000    0.1666666666666667     I748
    0.7906252699917526    0.2500000000000000    0.5000000000000000     I749
    0.7906252699917526    0.2500000000000000    0.8333333333333334     I750
    0.7906252699917526    0.5833333333333334    0.1666666666666667     I751
    0.7906252699917526    0.5833333333333334    0.5000000000000000     I752
    0.7906252699917526    0.5833333333333334    0.8333333333333334     I753
    0.7906252699917526    0.9166666666666666    0.1666666666666667     I754
    0.7906252699917526    0.9166666666666666    0.5000000000000000     I755
    0.7906252699917526    0.9166666666666666    0.8333333333333334     I756
    0.2906252699917526    0.0833333333333334    0.0000000000000000     I757
    0.2906252699917526    0.0833333333333334    0.3333333333333334     I758
    0.2906252699917526    0.0833333333333334    0.6666666666666667     I759
    0.2906252699917526    0.4166666666666667    0.0000000000000000     I760
    0.2906252699917526    0.4166666666666667    0.3333333333333334     I761
    0.2906252699917526    0.4166666666666667    0.6666666666666667     I762
    0.2906252699917526    0.7500000000000000    0.0000000000000000     I763
    0.2906252699917526    0.7500000000000000    0.3333333333333334     I764
    0.2906252699917526    0.7500000000000000    0.6666666666666667     I765
    0.6239586033250859    0.0833333333333334    0.0000000000000000     I766
    0.6239586033250859    0.0833333333333334    0.3333333333333334     I767
    0.6239586033250859    0.0833333333333334    0.6666666666666667     I768
    0.6239586033250859    0.4166666666666667    0.0000000000000000     I769
    0.6239586033250859    0.4166666666666667    0.3333333333333334     I770
    0.6239586033250859    0.4166666666666667    0.6666666666666667     I771
    0.6239586033250859    0.7500000000000000    0.0000000000000000     I772
    0.6239586033250859    0.7500000000000000    0.3333333333333334     I773
    0.6239586033250859    0.7500000000000000    0.6666666666666667     I774
    0.9572919366584193    0.0833333333333334    0.0000000000000000     I775
    0.9572919366584193    0.0833333333333334    0.3333333333333334     I776
    0.9572919366584193    0.0833333333333334    0.6666666666666667     I777
    0.9572919366584193    0.4166666666666667    0.0000000000000000     I778
    0.9572919366584193    0.4166666666666667    0.3333333333333334     I779
    0.9572919366584193    0.4166666666666667    0.6666666666666667     I780
    0.9572919366584193    0.7500000000000000    0.0000000000000000     I781
    0.9572919366584193    0.7500000000000000    0.3333333333333334     I782
    0.9572919366584193    0.7500000000000000    0.6666666666666667     I783
    0.2906252699917526    0.0833333333333334    0.1666666666666667     I784
    0.2906252699917526    0.0833333333333334    0.5000000000000000     I785
    0.2906252699917526    0.0833333333333334    0.8333333333333334     I786
    0.2906252699917526    0.4166666666666667    0.1666666666666667     I787
    0.2906252699917526    0.4166666666666667    0.5000000000000000     I788
    0.2906252699917526    0.4166666666666667    0.8333333333333334     I789
    0.2906252699917526    0.7500000000000000    0.1666666666666667     I790
    0.2906252699917526    0.7500000000000000    0.5000000000000000     I791
    0.2906252699917526    0.7500000000000000    0.8333333333333334     I792
    0.6239586033250859    0.0833333333333334    0.1666666666666667     I793
    0.6239586033250859    0.0833333333333334    0.5000000000000000     I794
    0.6239586033250859    0.0833333333333334    0.8333333333333334     I795
    0.6239586033250859    0.4166666666666667    0.1666666666666667     I796
    0.6239586033250859    0.4166666666666667    0.5000000000000000     I797
    0.6239586033250859    0.4166666666666667    0.8333333333333334     I798
    0.6239586033250859    0.7500000000000000    0.1666666666666667     I799
    0.6239586033250859    0.7500000000000000    0.5000000000000000     I800
    0.6239586033250859    0.7500000000000000    0.8333333333333334     I801
    0.9572919366584193    0.0833333333333334    0.1666666666666667     I802
    0.9572919366584193    0.0833333333333334    0.5000000000000000     I803
    0.9572919366584193    0.0833333333333334    0.8333333333333334     I804
    0.9572919366584193    0.4166666666666667    0.1666666666666667     I805
    0.9572919366584193    0.4166666666666667    0.5000000000000000     I806
    0.9572919366584193    0.4166666666666667    0.8333333333333334     I807
    0.9572919366584193    0.7500000000000000    0.1666666666666667     I808
    0.9572919366584193    0.7500000000000000    0.5000000000000000     I809
    0.9572919366584193    0.7500000000000000    0.8333333333333334     I810
    0.2906252699917526    0.2500000000000000    0.0000000000000000     I811
    0.2906252699917526    0.2500000000000000    0.3333333333333334     I812
    0.2906252699917526    0.2500000000000000    0.6666666666666667     I813
    0.2906252699917526    0.5833333333333334    0.0000000000000000     I814
    0.2906252699917526    0.5833333333333334    0.3333333333333334     I815
    0.2906252699917526    0.5833333333333334    0.6666666666666667     I816
    0.2906252699917526    0.9166666666666666    0.0000000000000000     I817
    0.2906252699917526    0.9166666666666666    0.3333333333333334     I818
    0.2906252699917526    0.9166666666666666    0.6666666666666667     I819
    0.6239586033250859    0.2500000000000000    0.0000000000000000     I820
    0.6239586033250859    0.2500000000000000    0.3333333333333334     I821
    0.6239586033250859    0.2500000000000000    0.6666666666666667     I822
    0.6239586033250859    0.5833333333333334    0.0000000000000000     I823
    0.6239586033250859    0.5833333333333334    0.3333333333333334     I824
    0.6239586033250859    0.5833333333333334    0.6666666666666667     I825
    0.6239586033250859    0.9166666666666666    0.0000000000000000     I826
    0.6239586033250859    0.9166666666666666    0.3333333333333334     I827
    0.6239586033250859    0.9166666666666666    0.6666666666666667     I828
    0.9572919366584193    0.2500000000000000    0.0000000000000000     I829
    0.9572919366584193    0.2500000000000000    0.3333333333333334     I830
    0.9572919366584193    0.2500000000000000    0.6666666666666667     I831
    0.9572919366584193    0.5833333333333334    0.0000000000000000     I832
    0.9572919366584193    0.5833333333333334    0.3333333333333334     I833
    0.9572919366584193    0.5833333333333334    0.6666666666666667     I834
    0.9572919366584193    0.9166666666666666    0.0000000000000000     I835
    0.9572919366584193    0.9166666666666666    0.3333333333333334     I836
    0.9572919366584193    0.9166666666666666    0.6666666666666667     I837
    0.2906252699917526    0.2500000000000000    0.1666666666666667     I838
    0.2906252699917526    0.2500000000000000    0.5000000000000000     I839
    0.2906252699917526    0.2500000000000000    0.8333333333333334     I840
    0.2906252699917526    0.5833333333333334    0.1666666666666667     I841
    0.2906252699917526    0.5833333333333334    0.5000000000000000     I842
    0.2906252699917526    0.5833333333333334    0.8333333333333334     I843
    0.2906252699917526    0.9166666666666666    0.1666666666666667     I844
    0.2906252699917526    0.9166666666666666    0.5000000000000000     I845
    0.2906252699917526    0.9166666666666666    0.8333333333333334     I846
    0.6239586033250859    0.2500000000000000    0.1666666666666667     I847
    0.6239586033250859    0.2500000000000000    0.5000000000000000     I848
    0.6239586033250859    0.2500000000000000    0.8333333333333334     I849
    0.6239586033250859    0.5833333333333334    0.1666666666666667     I850
    0.6239586033250859    0.5833333333333334    0.5000000000000000     I851
    0.6239586033250859    0.5833333333333334    0.8333333333333334     I852
    0.6239586033250859    0.9166666666666666    0.1666666666666667     I853
    0.6239586033250859    0.9166666666666666    0.5000000000000000     I854
    0.6239586033250859    0.9166666666666666    0.8333333333333334     I855
    0.9572919366584193    0.2500000000000000    0.1666666666666667     I856
    0.9572919366584193    0.2500000000000000    0.5000000000000000     I857
    0.9572919366584193    0.2500000000000000    0.8333333333333334     I858
    0.9572919366584193    0.5833333333333334    0.1666666666666667     I859
    0.9572919366584193    0.5833333333333334    0.5000000000000000     I860
    0.9572919366584193    0.5833333333333334    0.8333333333333334     I861
    0.9572919366584193    0.9166666666666666    0.1666666666666667     I862
    0.9572919366584193    0.9166666666666666    0.5000000000000000     I863
    0.9572919366584193    0.9166666666666666    0.8333333333333334     I864
    0.0000000000000000    0.0833333333333334    0.0427080633415808     I865
    0.0000000000000000    0.0833333333333334    0.3760413966749141     I866
    0.0000000000000000    0.0833333333333334    0.7093747300082474     I867
    0.0000000000000000    0.4166666666666667    0.0427080633415808     I868
    0.0000000000000000    0.4166666666666667    0.3760413966749141     I869
    0.0000000000000000    0.4166666666666667    0.7093747300082474     I870
    0.0000000000000000    0.7500000000000000    0.0427080633415808     I871
    0.0000000000000000    0.7500000000000000    0.3760413966749141     I872
    0.0000000000000000    0.7500000000000000    0.7093747300082474     I873
    0.3333333333333334    0.0833333333333334    0.0427080633415808     I874
    0.3333333333333334    0.0833333333333334    0.3760413966749141     I875
    0.3333333333333334    0.0833333333333334    0.7093747300082474     I876
    0.3333333333333334    0.4166666666666667    0.0427080633415808     I877
    0.3333333333333334    0.4166666666666667    0.3760413966749141     I878
    0.3333333333333334    0.4166666666666667    0.7093747300082474     I879
    0.3333333333333334    0.7500000000000000    0.0427080633415808     I880
    0.3333333333333334    0.7500000000000000    0.3760413966749141     I881
    0.3333333333333334    0.7500000000000000    0.7093747300082474     I882
    0.6666666666666667    0.0833333333333334    0.0427080633415808     I883
    0.6666666666666667    0.0833333333333334    0.3760413966749141     I884
    0.6666666666666667    0.0833333333333334    0.7093747300082474     I885
    0.6666666666666667    0.4166666666666667    0.0427080633415808     I886
    0.6666666666666667    0.4166666666666667    0.3760413966749141     I887
    0.6666666666666667    0.4166666666666667    0.7093747300082474     I888
    0.6666666666666667    0.7500000000000000    0.0427080633415808     I889
    0.6666666666666667    0.7500000000000000    0.3760413966749141     I890
    0.6666666666666667    0.7500000000000000    0.7093747300082474     I891
    0.0000000000000000    0.0833333333333334    0.2093747300082475     I892
    0.0000000000000000    0.0833333333333334    0.5427080633415808     I893
    0.0000000000000000    0.0833333333333334    0.8760413966749141     I894
    0.0000000000000000    0.4166666666666667    0.2093747300082475     I895
    0.0000000000000000    0.4166666666666667    0.5427080633415808     I896
    0.0000000000000000    0.4166666666666667    0.8760413966749141     I897
    0.0000000000000000    0.7500000000000000    0.2093747300082475     I898
    0.0000000000000000    0.7500000000000000    0.5427080633415808     I899
    0.0000000000000000    0.7500000000000000    0.8760413966749141     I900
    0.3333333333333334    0.0833333333333334    0.2093747300082475     I901
    0.3333333333333334    0.0833333333333334    0.5427080633415808     I902
    0.3333333333333334    0.0833333333333334    0.8760413966749141     I903
    0.3333333333333334    0.4166666666666667    0.2093747300082475     I904
    0.3333333333333334    0.4166666666666667    0.5427080633415808     I905
    0.3333333333333334    0.4166666666666667    0.8760413966749141     I906
    0.3333333333333334    0.7500000000000000    0.2093747300082475     I907
    0.3333333333333334    0.7500000000000000    0.5427080633415808     I908
    0.3333333333333334    0.7500000000000000    0.8760413966749141     I909
    0.6666666666666667    0.0833333333333334    0.2093747300082475     I910
    0.6666666666666667    0.0833333333333334    0.5427080633415808     I911
    0.6666666666666667    0.0833333333333334    0.8760413966749141     I912
    0.6666666666666667    0.4166666666666667    0.2093747300082475     I913
    0.6666666666666667    0.4166666666666667    0.5427080633415808     I914
    0.6666666666666667    0.4166666666666667    0.8760413966749141     I915
    0.6666666666666667    0.7500000000000000    0.2093747300082475     I916
    0.6666666666666667    0.7500000000000000    0.5427080633415808     I917
    0.6666666666666667    0.7500000000000000    0.8760413966749141     I918
    0.0000000000000000    0.2500000000000000    0.0427080633415808     I919
    0.0000000000000000    0.2500000000000000    0.3760413966749141     I920
    0.0000000000000000    0.2500000000000000    0.7093747300082474     I921
    0.0000000000000000    0.5833333333333334    0.0427080633415808     I922
    0.0000000000000000    0.5833333333333334    0.3760413966749141     I923
    0.0000000000000000    0.5833333333333334    0.7093747300082474     I924
    0.0000000000000000    0.9166666666666666    0.0427080633415808     I925
    0.0000000000000000    0.9166666666666666    0.3760413966749141     I926
    0.0000000000000000    0.9166666666666666    0.7093747300082474     I927
    0.3333333333333334    0.2500000000000000    0.0427080633415808     I928
    0.3333333333333334    0.2500000000000000    0.3760413966749141     I929
    0.3333333333333334    0.2500000000000000    0.7093747300082474     I930
    0.3333333333333334    0.5833333333333334    0.0427080633415808     I931
    0.3333333333333334    0.5833333333333334    0.3760413966749141     I932
    0.3333333333333334    0.5833333333333334    0.7093747300082474     I933
    0.3333333333333334    0.9166666666666666    0.0427080633415808     I934
    0.3333333333333334    0.9166666666666666    0.3760413966749141     I935
    0.3333333333333334    0.9166666666666666    0.7093747300082474     I936
    0.6666666666666667    0.2500000000000000    0.0427080633415808     I937
    0.6666666666666667    0.2500000000000000    0.3760413966749141     I938
    0.6666666666666667    0.2500000000000000    0.7093747300082474     I939
    0.6666666666666667    0.5833333333333334    0.0427080633415808     I940
    0.6666666666666667    0.5833333333333334    0.3760413966749141     I941
    0.6666666666666667    0.5833333333333334    0.7093747300082474     I942
    0.6666666666666667    0.9166666666666666    0.0427080633415808     I943
    0.6666666666666667    0.9166666666666666    0.3760413966749141     I944
    0.6666666666666667    0.9166666666666666    0.7093747300082474     I945
    0.0000000000000000    0.2500000000000000    0.2093747300082475     I946
    0.0000000000000000    0.2500000000000000    0.5427080633415808     I947
    0.0000000000000000    0.2500000000000000    0.8760413966749141     I948
    0.0000000000000000    0.5833333333333334    0.2093747300082475     I949
    0.0000000000000000    0.5833333333333334    0.5427080633415808     I950
    0.0000000000000000    0.5833333333333334    0.8760413966749141     I951
    0.0000000000000000    0.9166666666666666    0.2093747300082475     I952
    0.0000000000000000    0.9166666666666666    0.5427080633415808     I953
    0.0000000000000000    0.9166666666666666    0.8760413966749141     I954
    0.3333333333333334    0.2500000000000000    0.2093747300082475     I955
    0.3333333333333334    0.2500000000000000    0.5427080633415808     I956
    0.3333333333333334    0.2500000000000000    0.8760413966749141     I957
    0.3333333333333334    0.5833333333333334    0.2093747300082475     I958
    0.3333333333333334    0.5833333333333334    0.5427080633415808     I959
    0.3333333333333334    0.5833333333333334    0.8760413966749141     I960
    0.3333333333333334    0.9166666666666666    0.2093747300082475     I961
    0.3333333333333334    0.9166666666666666    0.5427080633415808     I962
    0.3333333333333334    0.9166666666666666    0.8760413966749141     I963
    0.6666666666666667    0.2500000000000000    0.2093747300082475     I964
    0.6666666666666667    0.2500000000000000    0.5427080633415808     I965
    0.6666666666666667    0.2500000000000000    0.8760413966749141     I966
    0.6666666666666667    0.5833333333333334    0.2093747300082475     I967
    0.6666666666666667    0.5833333333333334    0.5427080633415808     I968
    0.6666666666666667    0.5833333333333334    0.8760413966749141     I969
    0.6666666666666667    0.9166666666666666    0.2093747300082475     I970
    0.6666666666666667    0.9166666666666666    0.5427080633415808     I971
    0.6666666666666667    0.9166666666666666    0.8760413966749141     I972
    0.1666666666666667    0.0833333333333334    0.0427080633415808     I973
    0.1666666666666667    0.0833333333333334    0.3760413966749141     I974
    0.1666666666666667    0.0833333333333334    0.7093747300082474     I975
    0.1666666666666667    0.4166666666666667    0.0427080633415808     I976
    0.1666666666666667    0.4166666666666667    0.3760413966749141     I977
    0.1666666666666667    0.4166666666666667    0.7093747300082474     I978
    0.1666666666666667    0.7500000000000000    0.0427080633415808     I979
    0.1666666666666667    0.7500000000000000    0.3760413966749141     I980
    0.1666666666666667    0.7500000000000000    0.7093747300082474     I981
    0.5000000000000000    0.0833333333333334    0.0427080633415808     I982
    0.5000000000000000    0.0833333333333334    0.3760413966749141     I983
    0.5000000000000000    0.0833333333333334    0.7093747300082474     I984
    0.5000000000000000    0.4166666666666667    0.0427080633415808     I985
    0.5000000000000000    0.4166666666666667    0.3760413966749141     I986
    0.5000000000000000    0.4166666666666667    0.7093747300082474     I987
    0.5000000000000000    0.7500000000000000    0.0427080633415808     I988
    0.5000000000000000    0.7500000000000000    0.3760413966749141     I989
    0.5000000000000000    0.7500000000000000    0.7093747300082474     I990
    0.8333333333333334    0.0833333333333334    0.0427080633415808     I991
    0.8333333333333334    0.0833333333333334    0.3760413966749141     I992
    0.8333333333333334    0.0833333333333334    0.7093747300082474     I993
    0.8333333333333334    0.4166666666666667    0.0427080633415808     I994
    0.8333333333333334    0.4166666666666667    0.3760413966749141     I995
    0.8333333333333334    0.4166666666666667    0.7093747300082474     I996
    0.8333333333333334    0.7500000000000000    0.0427080633415808     I997
    0.8333333333333334    0.7500000000000000    0.3760413966749141     I998
    0.8333333333333334    0.7500000000000000    0.7093747300082474     I999
    0.1666666666666667    0.0833333333333334    0.2093747300082475    I1000
    0.1666666666666667    0.0833333333333334    0.5427080633415808    I1001
    0.1666666666666667    0.0833333333333334    0.8760413966749141    I1002
    0.1666666666666667    0.4166666666666667    0.2093747300082475    I1003
    0.1666666666666667    0.4166666666666667    0.5427080633415808    I1004
    0.1666666666666667    0.4166666666666667    0.8760413966749141    I1005
    0.1666666666666667    0.7500000000000000    0.2093747300082475    I1006
    0.1666666666666667    0.7500000000000000    0.5427080633415808    I1007
    0.1666666666666667    0.7500000000000000    0.8760413966749141    I1008
    0.5000000000000000    0.0833333333333334    0.2093747300082475    I1009
    0.5000000000000000    0.0833333333333334    0.5427080633415808    I1010
    0.5000000000000000    0.0833333333333334    0.8760413966749141    I1011
    0.5000000000000000    0.4166666666666667    0.2093747300082475    I1012
    0.5000000000000000    0.4166666666666667    0.5427080633415808    I1013
    0.5000000000000000    0.4166666666666667    0.8760413966749141    I1014
    0.5000000000000000    0.7500000000000000    0.2093747300082475    I1015
    0.5000000000000000    0.7500000000000000    0.5427080633415808    I1016
    0.5000000000000000    0.7500000000000000    0.8760413966749141    I1017
    0.8333333333333334    0.0833333333333334    0.2093747300082475    I1018
    0.8333333333333334    0.0833333333333334    0.5427080633415808    I1019
    0.8333333333333334    0.0833333333333334    0.8760413966749141    I1020
    0.8333333333333334    0.4166666666666667    0.2093747300082475    I1021
    0.8333333333333334    0.4166666666666667    0.5427080633415808    I1022
    0.8333333333333334    0.4166666666666667    0.8760413966749141    I1023
    0.8333333333333334    0.7500000000000000    0.2093747300082475    I1024
    0.8333333333333334    0.7500000000000000    0.5427080633415808    I1025
    0.8333333333333334    0.7500000000000000    0.8760413966749141    I1026
    0.1666666666666667    0.2500000000000000    0.0427080633415808    I1027
    0.1666666666666667    0.2500000000000000    0.3760413966749141    I1028
    0.1666666666666667    0.2500000000000000    0.7093747300082474    I1029
    0.1666666666666667    0.5833333333333334    0.0427080633415808    I1030
    0.1666666666666667    0.5833333333333334    0.3760413966749141    I1031
    0.1666666666666667    0.5833333333333334    0.7093747300082474    I1032
    0.1666666666666667    0.9166666666666666    0.0427080633415808    I1033
    0.1666666666666667    0.9166666666666666    0.3760413966749141    I1034
    0.1666666666666667    0.9166666666666666    0.7093747300082474    I1035
    0.5000000000000000    0.2500000000000000    0.0427080633415808    I1036
    0.5000000000000000    0.2500000000000000    0.3760413966749141    I1037
    0.5000000000000000    0.2500000000000000    0.7093747300082474    I1038
    0.5000000000000000    0.5833333333333334    0.0427080633415808    I1039
    0.5000000000000000    0.5833333333333334    0.3760413966749141    I1040
    0.5000000000000000    0.5833333333333334    0.7093747300082474    I1041
    0.5000000000000000    0.9166666666666666    0.0427080633415808    I1042
    0.5000000000000000    0.9166666666666666    0.3760413966749141    I1043
    0.5000000000000000    0.9166666666666666    0.7093747300082474    I1044
    0.8333333333333334    0.2500000000000000    0.0427080633415808    I1045
    0.8333333333333334    0.2500000000000000    0.3760413966749141    I1046
    0.8333333333333334    0.2500000000000000    0.7093747300082474    I1047
    0.8333333333333334    0.5833333333333334    0.0427080633415808    I1048
    0.8333333333333334    0.5833333333333334    0.3760413966749141    I1049
    0.8333333333333334    0.5833333333333334    0.7093747300082474    I1050
    0.8333333333333334    0.9166666666666666    0.0427080633415808    I1051
    0.8333333333333334    0.9166666666666666    0.3760413966749141    I1052
    0.8333333333333334    0.9166666666666666    0.7093747300082474    I1053
    0.1666666666666667    0.2500000000000000    0.2093747300082475    I1054
    0.1666666666666667    0.2500000000000000    0.5427080633415808    I1055
    0.1666666666666667    0.2500000000000000    0.8760413966749141    I1056
    0.1666666666666667    0.5833333333333334    0.2093747300082475    I1057
    0.1666666666666667    0.5833333333333334    0.5427080633415808    I1058
    0.1666666666666667    0.5833333333333334    0.8760413966749141    I1059
    0.1666666666666667    0.9166666666666666    0.2093747300082475    I1060
    0.1666666666666667    0.9166666666666666    0.5427080633415808    I1061
    0.1666666666666667    0.9166666666666666    0.8760413966749141    I1062
    0.5000000000000000    0.2500000000000000    0.2093747300082475    I1063
    0.5000000000000000    0.2500000000000000    0.5427080633415808    I1064
    0.5000000000000000    0.2500000000000000    0.8760413966749141    I1065
    0.5000000000000000    0.5833333333333334    0.2093747300082475    I1066
    0.5000000000000000    0.5833333333333334    0.5427080633415808    I1067
    0.5000000000000000    0.5833333333333334    0.8760413966749141    I1068
    0.5000000000000000    0.9166666666666666    0.2093747300082475    I1069
    0.5000000000000000    0.9166666666666666    0.5427080633415808    I1070
    0.5000000000000000    0.9166666666666666    0.8760413966749141    I1071
    0.8333333333333334    0.2500000000000000    0.2093747300082475    I1072
    0.8333333333333334    0.2500000000000000    0.5427080633415808    I1073
    0.8333333333333334    0.2500000000000000    0.8760413966749141    I1074
    0.8333333333333334    0.5833333333333334    0.2093747300082475    I1075
    0.8333333333333334    0.5833333333333334    0.5427080633415808    I1076
    0.8333333333333334    0.5833333333333334    0.8760413966749141    I1077
    0.8333333333333334    0.9166666666666666    0.2093747300082475    I1078
    0.8333333333333334    0.9166666666666666    0.5427080633415808    I1079
    0.8333333333333334    0.9166666666666666    0.8760413966749141    I1080
    0.0000000000000000    0.0833333333333334    0.1239586033250859    I1081
    0.0000000000000000    0.0833333333333334    0.4572919366584193    I1082
    0.0000000000000000    0.0833333333333334    0.7906252699917526    I1083
    0.0000000000000000    0.4166666666666667    0.1239586033250859    I1084
    0.0000000000000000    0.4166666666666667    0.4572919366584193    I1085
    0.0000000000000000    0.4166666666666667    0.7906252699917526    I1086
    0.0000000000000000    0.7500000000000000    0.1239586033250859    I1087
    0.0000000000000000    0.7500000000000000    0.4572919366584193    I1088
    0.0000000000000000    0.7500000000000000    0.7906252699917526    I1089
    0.3333333333333334    0.0833333333333334    0.1239586033250859    I1090
    0.3333333333333334    0.0833333333333334    0.4572919366584193    I1091
    0.3333333333333334    0.0833333333333334    0.7906252699917526    I1092
    0.3333333333333334    0.4166666666666667    0.1239586033250859    I1093
    0.3333333333333334    0.4166666666666667    0.4572919366584193    I1094
    0.3333333333333334    0.4166666666666667    0.7906252699917526    I1095
    0.3333333333333334    0.7500000000000000    0.1239586033250859    I1096
    0.3333333333333334    0.7500000000000000    0.4572919366584193    I1097
    0.3333333333333334    0.7500000000000000    0.7906252699917526    I1098
    0.6666666666666667    0.0833333333333334    0.1239586033250859    I1099
    0.6666666666666667    0.0833333333333334    0.4572919366584193    I1100
    0.6666666666666667    0.0833333333333334    0.7906252699917526    I1101
    0.6666666666666667    0.4166666666666667    0.1239586033250859    I1102
    0.6666666666666667    0.4166666666666667    0.4572919366584193    I1103
    0.6666666666666667    0.4166666666666667    0.7906252699917526    I1104
    0.6666666666666667    0.7500000000000000    0.1239586033250859    I1105
    0.6666666666666667    0.7500000000000000    0.4572919366584193    I1106
    0.6666666666666667    0.7500000000000000    0.7906252699917526    I1107
    0.0000000000000000    0.0833333333333334    0.2906252699917526    I1108
    0.0000000000000000    0.0833333333333334    0.6239586033250859    I1109
    0.0000000000000000    0.0833333333333334    0.9572919366584193    I1110
    0.0000000000000000    0.4166666666666667    0.2906252699917526    I1111
    0.0000000000000000    0.4166666666666667    0.6239586033250859    I1112
    0.0000000000000000    0.4166666666666667    0.9572919366584193    I1113
    0.0000000000000000    0.7500000000000000    0.2906252699917526    I1114
    0.0000000000000000    0.7500000000000000    0.6239586033250859    I1115
    0.0000000000000000    0.7500000000000000    0.9572919366584193    I1116
    0.3333333333333334    0.0833333333333334    0.2906252699917526    I1117
    0.3333333333333334    0.0833333333333334    0.6239586033250859    I1118
    0.3333333333333334    0.0833333333333334    0.9572919366584193    I1119
    0.3333333333333334    0.4166666666666667    0.2906252699917526    I1120
    0.3333333333333334    0.4166666666666667    0.6239586033250859    I1121
    0.3333333333333334    0.4166666666666667    0.9572919366584193    I1122
    0.3333333333333334    0.7500000000000000    0.2906252699917526    I1123
    0.3333333333333334    0.7500000000000000    0.6239586033250859    I1124
    0.3333333333333334    0.7500000000000000    0.9572919366584193    I1125
    0.6666666666666667    0.0833333333333334    0.2906252699917526    I1126
    0.6666666666666667    0.0833333333333334    0.6239586033250859    I1127
    0.6666666666666667    0.0833333333333334    0.9572919366584193    I1128
    0.6666666666666667    0.4166666666666667    0.2906252699917526    I1129
    0.6666666666666667    0.4166666666666667    0.6239586033250859    I1130
    0.6666666666666667    0.4166666666666667    0.9572919366584193    I1131
    0.6666666666666667    0.7500000000000000    0.2906252699917526    I1132
    0.6666666666666667    0.7500000000000000    0.6239586033250859    I1133
    0.6666666666666667    0.7500000000000000    0.9572919366584193    I1134
    0.0000000000000000    0.2500000000000000    0.1239586033250859    I1135
    0.0000000000000000    0.2500000000000000    0.4572919366584193    I1136
    0.0000000000000000    0.2500000000000000    0.7906252699917526    I1137
    0.0000000000000000    0.5833333333333334    0.1239586033250859    I1138
    0.0000000000000000    0.5833333333333334    0.4572919366584193    I1139
    0.0000000000000000    0.5833333333333334    0.7906252699917526    I1140
    0.0000000000000000    0.9166666666666666    0.1239586033250859    I1141
    0.0000000000000000    0.9166666666666666    0.4572919366584193    I1142
    0.0000000000000000    0.9166666666666666    0.7906252699917526    I1143
    0.3333333333333334    0.2500000000000000    0.1239586033250859    I1144
    0.3333333333333334    0.2500000000000000    0.4572919366584193    I1145
    0.3333333333333334    0.2500000000000000    0.7906252699917526    I1146
    0.3333333333333334    0.5833333333333334    0.1239586033250859    I1147
    0.3333333333333334    0.5833333333333334    0.4572919366584193    I1148
    0.3333333333333334    0.5833333333333334    0.7906252699917526    I1149
    0.3333333333333334    0.9166666666666666    0.1239586033250859    I1150
    0.3333333333333334    0.9166666666666666    0.4572919366584193    I1151
    0.3333333333333334    0.9166666666666666    0.7906252699917526    I1152
    0.6666666666666667    0.2500000000000000    0.1239586033250859    I1153
    0.6666666666666667    0.2500000000000000    0.4572919366584193    I1154
    0.6666666666666667    0.2500000000000000    0.7906252699917526    I1155
    0.6666666666666667    0.5833333333333334    0.1239586033250859    I1156
    0.6666666666666667    0.5833333333333334    0.4572919366584193    I1157
    0.6666666666666667    0.5833333333333334    0.7906252699917526    I1158
    0.6666666666666667    0.9166666666666666    0.1239586033250859    I1159
    0.6666666666666667    0.9166666666666666    0.4572919366584193    I1160
    0.6666666666666667    0.9166666666666666    0.7906252699917526    I1161
    0.0000000000000000    0.2500000000000000    0.2906252699917526    I1162
    0.0000000000000000    0.2500000000000000    0.6239586033250859    I1163
    0.0000000000000000    0.2500000000000000    0.9572919366584193    I1164
    0.0000000000000000    0.5833333333333334    0.2906252699917526    I1165
    0.0000000000000000    0.5833333333333334    0.6239586033250859    I1166
    0.0000000000000000    0.5833333333333334    0.9572919366584193    I1167
    0.0000000000000000    0.9166666666666666    0.2906252699917526    I1168
    0.0000000000000000    0.9166666666666666    0.6239586033250859    I1169
    0.0000000000000000    0.9166666666666666    0.9572919366584193    I1170
    0.3333333333333334    0.2500000000000000    0.2906252699917526    I1171
    0.3333333333333334    0.2500000000000000    0.6239586033250859    I1172
    0.3333333333333334    0.2500000000000000    0.9572919366584193    I1173
    0.3333333333333334    0.5833333333333334    0.2906252699917526    I1174
    0.3333333333333334    0.5833333333333334    0.6239586033250859    I1175
    0.3333333333333334    0.5833333333333334    0.9572919366584193    I1176
    0.3333333333333334    0.9166666666666666    0.2906252699917526    I1177
    0.3333333333333334    0.9166666666666666    0.6239586033250859    I1178
    0.3333333333333334    0.9166666666666666    0.9572919366584193    I1179
    0.6666666666666667    0.2500000000000000    0.2906252699917526    I1180
    0.6666666666666667    0.2500000000000000    0.6239586033250859    I1181
    0.6666666666666667    0.2500000000000000    0.9572919366584193    I1182
    0.6666666666666667    0.5833333333333334    0.2906252699917526    I1183
    0.6666666666666667    0.5833333333333334    0.6239586033250859    I1184
    0.6666666666666667    0.5833333333333334    0.9572919366584193    I1185
    0.6666666666666667    0.9166666666666666    0.2906252699917526    I1186
    0.6666666666666667    0.9166666666666666    0.6239586033250859    I1187
    0.6666666666666667    0.9166666666666666    0.9572919366584193    I1188
    0.1666666666666667    0.0833333333333334    0.1239586033250859    I1189
    0.1666666666666667    0.0833333333333334    0.4572919366584193    I1190
    0.1666666666666667    0.0833333333333334    0.7906252699917526    I1191
    0.1666666666666667    0.4166666666666667    0.1239586033250859    I1192
    0.1666666666666667    0.4166666666666667    0.4572919366584193    I1193
    0.1666666666666667    0.4166666666666667    0.7906252699917526    I1194
    0.1666666666666667    0.7500000000000000    0.1239586033250859    I1195
    0.1666666666666667    0.7500000000000000    0.4572919366584193    I1196
    0.1666666666666667    0.7500000000000000    0.7906252699917526    I1197
    0.5000000000000000    0.0833333333333334    0.1239586033250859    I1198
    0.5000000000000000    0.0833333333333334    0.4572919366584193    I1199
    0.5000000000000000    0.0833333333333334    0.7906252699917526    I1200
    0.5000000000000000    0.4166666666666667    0.1239586033250859    I1201
    0.5000000000000000    0.4166666666666667    0.4572919366584193    I1202
    0.5000000000000000    0.4166666666666667    0.7906252699917526    I1203
    0.5000000000000000    0.7500000000000000    0.1239586033250859    I1204
    0.5000000000000000    0.7500000000000000    0.4572919366584193    I1205
    0.5000000000000000    0.7500000000000000    0.7906252699917526    I1206
    0.8333333333333334    0.0833333333333334    0.1239586033250859    I1207
    0.8333333333333334    0.0833333333333334    0.4572919366584193    I1208
    0.8333333333333334    0.0833333333333334    0.7906252699917526    I1209
    0.8333333333333334    0.4166666666666667    0.1239586033250859    I1210
    0.8333333333333334    0.4166666666666667    0.4572919366584193    I1211
    0.8333333333333334    0.4166666666666667    0.7906252699917526    I1212
    0.8333333333333334    0.7500000000000000    0.1239586033250859    I1213
    0.8333333333333334    0.7500000000000000    0.4572919366584193    I1214
    0.8333333333333334    0.7500000000000000    0.7906252699917526    I1215
    0.1666666666666667    0.0833333333333334    0.2906252699917526    I1216
    0.1666666666666667    0.0833333333333334    0.6239586033250859    I1217
    0.1666666666666667    0.0833333333333334    0.9572919366584193    I1218
    0.1666666666666667    0.4166666666666667    0.2906252699917526    I1219
    0.1666666666666667    0.4166666666666667    0.6239586033250859    I1220
    0.1666666666666667    0.4166666666666667    0.9572919366584193    I1221
    0.1666666666666667    0.7500000000000000    0.2906252699917526    I1222
    0.1666666666666667    0.7500000000000000    0.6239586033250859    I1223
    0.1666666666666667    0.7500000000000000    0.9572919366584193    I1224
    0.5000000000000000    0.0833333333333334    0.2906252699917526    I1225
    0.5000000000000000    0.0833333333333334    0.6239586033250859    I1226
    0.5000000000000000    0.0833333333333334    0.9572919366584193    I1227
    0.5000000000000000    0.4166666666666667    0.2906252699917526    I1228
    0.5000000000000000    0.4166666666666667    0.6239586033250859    I1229
    0.5000000000000000    0.4166666666666667    0.9572919366584193    I1230
    0.5000000000000000    0.7500000000000000    0.2906252699917526    I1231
    0.5000000000000000    0.7500000000000000    0.6239586033250859    I1232
    0.5000000000000000    0.7500000000000000    0.9572919366584193    I1233
    0.8333333333333334    0.0833333333333334    0.2906252699917526    I1234
    0.8333333333333334    0.0833333333333334    0.6239586033250859    I1235
    0.8333333333333334    0.0833333333333334    0.9572919366584193    I1236
    0.8333333333333334    0.4166666666666667    0.2906252699917526    I1237
    0.8333333333333334    0.4166666666666667    0.6239586033250859    I1238
    0.8333333333333334    0.4166666666666667    0.9572919366584193    I1239
    0.8333333333333334    0.7500000000000000    0.2906252699917526    I1240
    0.8333333333333334    0.7500000000000000    0.6239586033250859    I1241
    0.8333333333333334    0.7500000000000000    0.9572919366584193    I1242
    0.1666666666666667    0.2500000000000000    0.1239586033250859    I1243
    0.1666666666666667    0.2500000000000000    0.4572919366584193    I1244
    0.1666666666666667    0.2500000000000000    0.7906252699917526    I1245
    0.1666666666666667    0.5833333333333334    0.1239586033250859    I1246
    0.1666666666666667    0.5833333333333334    0.4572919366584193    I1247
    0.1666666666666667    0.5833333333333334    0.7906252699917526    I1248
    0.1666666666666667    0.9166666666666666    0.1239586033250859    I1249
    0.1666666666666667    0.9166666666666666    0.4572919366584193    I1250
    0.1666666666666667    0.9166666666666666    0.7906252699917526    I1251
    0.5000000000000000    0.2500000000000000    0.1239586033250859    I1252
    0.5000000000000000    0.2500000000000000    0.4572919366584193    I1253
    0.5000000000000000    0.2500000000000000    0.7906252699917526    I1254
    0.5000000000000000    0.5833333333333334    0.1239586033250859    I1255
    0.5000000000000000    0.5833333333333334    0.4572919366584193    I1256
    0.5000000000000000    0.5833333333333334    0.7906252699917526    I1257
    0.5000000000000000    0.9166666666666666    0.1239586033250859    I1258
    0.5000000000000000    0.9166666666666666    0.4572919366584193    I1259
    0.5000000000000000    0.9166666666666666    0.7906252699917526    I1260
    0.8333333333333334    0.2500000000000000    0.1239586033250859    I1261
    0.8333333333333334    0.2500000000000000    0.4572919366584193    I1262
    0.8333333333333334    0.2500000000000000    0.7906252699917526    I1263
    0.8333333333333334    0.5833333333333334    0.1239586033250859    I1264
    0.8333333333333334    0.5833333333333334    0.4572919366584193    I1265
    0.8333333333333334    0.5833333333333334    0.7906252699917526    I1266
    0.8333333333333334    0.9166666666666666    0.1239586033250859    I1267
    0.8333333333333334    0.9166666666666666    0.4572919366584193    I1268
    0.8333333333333334    0.9166666666666666    0.7906252699917526    I1269
    0.1666666666666667    0.2500000000000000    0.2906252699917526    I1270
    0.1666666666666667    0.2500000000000000    0.6239586033250859    I1271
    0.1666666666666667    0.2500000000000000    0.9572919366584193    I1272
    0.1666666666666667    0.5833333333333334    0.2906252699917526    I1273
    0.1666666666666667    0.5833333333333334    0.6239586033250859    I1274
    0.1666666666666667    0.5833333333333334    0.9572919366584193    I1275
    0.1666666666666667    0.9166666666666666    0.2906252699917526    I1276
    0.1666666666666667    0.9166666666666666    0.6239586033250859    I1277
    0.1666666666666667    0.9166666666666666    0.9572919366584193    I1278
    0.5000000000000000    0.2500000000000000    0.2906252699917526    I1279
    0.5000000000000000    0.2500000000000000    0.6239586033250859    I1280
    0.5000000000000000    0.2500000000000000    0.9572919366584193    I1281
    0.5000000000000000    0.5833333333333334    0.2906252699917526    I1282
    0.5000000000000000    0.5833333333333334    0.6239586033250859    I1283
    0.5000000000000000    0.5833333333333334    0.9572919366584193    I1284
    0.5000000000000000    0.9166666666666666    0.2906252699917526    I1285
    0.5000000000000000    0.9166666666666666    0.6239586033250859    I1286
    0.5000000000000000    0.9166666666666666    0.9572919366584193    I1287
    0.8333333333333334    0.2500000000000000    0.2906252699917526    I1288
    0.8333333333333334    0.2500000000000000    0.6239586033250859    I1289
    0.8333333333333334    0.2500000000000000    0.9572919366584193    I1290
    0.8333333333333334    0.5833333333333334    0.2906252699917526    I1291
    0.8333333333333334    0.5833333333333334    0.6239586033250859    I1292
    0.8333333333333334    0.5833333333333334    0.9572919366584193    I1293
    0.8333333333333334    0.9166666666666666    0.2906252699917526    I1294
    0.8333333333333334    0.9166666666666666    0.6239586033250859    I1295
    0.8333333333333334    0.9166666666666666    0.9572919366584193    I1296
    0.1260413966749141    0.0000000000000000    0.0000000000000000    I1297
    0.1260413966749141    0.0000000000000000    0.3333333333333334    I1298
    0.1260413966749141    0.0000000000000000    0.6666666666666667    I1299
    0.1260413966749141    0.3333333333333334    0.0000000000000000    I1300
    0.1260413966749141    0.3333333333333334    0.3333333333333334    I1301
    0.1260413966749141    0.3333333333333334    0.6666666666666667    I1302
    0.1260413966749141    0.6666666666666667    0.0000000000000000    I1303
    0.1260413966749141    0.6666666666666667    0.3333333333333334    I1304
    0.1260413966749141    0.6666666666666667    0.6666666666666667    I1305
    0.4593747300082475    0.0000000000000000    0.0000000000000000    I1306
    0.4593747300082475    0.0000000000000000    0.3333333333333334    I1307
    0.4593747300082475    0.0000000000000000    0.6666666666666667    I1308
    0.4593747300082475    0.3333333333333334    0.0000000000000000    I1309
    0.4593747300082475    0.3333333333333334    0.3333333333333334    I1310
    0.4593747300082475    0.3333333333333334    0.6666666666666667    I1311
    0.4593747300082475    0.6666666666666667    0.0000000000000000    I1312
    0.4593747300082475    0.6666666666666667    0.3333333333333334    I1313
    0.4593747300082475    0.6666666666666667    0.6666666666666667    I1314
    0.7927080633415808    0.0000000000000000    0.0000000000000000    I1315
    0.7927080633415808    0.0000000000000000    0.3333333333333334    I1316
    0.7927080633415808    0.0000000000000000    0.6666666666666667    I1317
    0.7927080633415808    0.3333333333333334    0.0000000000000000    I1318
    0.7927080633415808    0.3333333333333334    0.3333333333333334    I1319
    0.7927080633415808    0.3333333333333334    0.6666666666666667    I1320
    0.7927080633415808    0.6666666666666667    0.0000000000000000    I1321
    0.7927080633415808    0.6666666666666667    0.3333333333333334    I1322
    0.7927080633415808    0.6666666666666667    0.6666666666666667    I1323
    0.1260413966749141    0.0000000000000000    0.1666666666666667    I1324
    0.1260413966749141    0.0000000000000000    0.5000000000000000    I1325
    0.1260413966749141    0.0000000000000000    0.8333333333333334    I1326
    0.1260413966749141    0.3333333333333334    0.1666666666666667    I1327
    0.1260413966749141    0.3333333333333334    0.5000000000000000    I1328
    0.1260413966749141    0.3333333333333334    0.8333333333333334    I1329
    0.1260413966749141    0.6666666666666667    0.1666666666666667    I1330
    0.1260413966749141    0.6666666666666667    0.5000000000000000    I1331
    0.1260413966749141    0.6666666666666667    0.8333333333333334    I1332
    0.4593747300082475    0.0000000000000000    0.1666666666666667    I1333
    0.4593747300082475    0.0000000000000000    0.5000000000000000    I1334
    0.4593747300082475    0.0000000000000000    0.8333333333333334    I1335
    0.4593747300082475    0.3333333333333334    0.1666666666666667    I1336
    0.4593747300082475    0.3333333333333334    0.5000000000000000    I1337
    0.4593747300082475    0.3333333333333334    0.8333333333333334    I1338
    0.4593747300082475    0.6666666666666667    0.1666666666666667    I1339
    0.4593747300082475    0.6666666666666667    0.5000000000000000    I1340
    0.4593747300082475    0.6666666666666667    0.8333333333333334    I1341
    0.7927080633415808    0.0000000000000000    0.1666666666666667    I1342
    0.7927080633415808    0.0000000000000000    0.5000000000000000    I1343
    0.7927080633415808    0.0000000000000000    0.8333333333333334    I1344
    0.7927080633415808    0.3333333333333334    0.1666666666666667    I1345
    0.7927080633415808    0.3333333333333334    0.5000000000000000    I1346
    0.7927080633415808    0.3333333333333334    0.8333333333333334    I1347
    0.7927080633415808    0.6666666666666667    0.1666666666666667    I1348
    0.7927080633415808    0.6666666666666667    0.5000000000000000    I1349
    0.7927080633415808    0.6666666666666667    0.8333333333333334    I1350
    0.1260413966749141    0.1666666666666667    0.0000000000000000    I1351
    0.1260413966749141    0.1666666666666667    0.3333333333333334    I1352
    0.1260413966749141    0.1666666666666667    0.6666666666666667    I1353
    0.1260413966749141    0.5000000000000000    0.0000000000000000    I1354
    0.1260413966749141    0.5000000000000000    0.3333333333333334    I1355
    0.1260413966749141    0.5000000000000000    0.6666666666666667    I1356
    0.1260413966749141    0.8333333333333334    0.0000000000000000    I1357
    0.1260413966749141    0.8333333333333334    0.3333333333333334    I1358
    0.1260413966749141    0.8333333333333334    0.6666666666666667    I1359
    0.4593747300082475    0.1666666666666667    0.0000000000000000    I1360
    0.4593747300082475    0.1666666666666667    0.3333333333333334    I1361
    0.4593747300082475    0.1666666666666667    0.6666666666666667    I1362
    0.4593747300082475    0.5000000000000000    0.0000000000000000    I1363
    0.4593747300082475    0.5000000000000000    0.3333333333333334    I1364
    0.4593747300082475    0.5000000000000000    0.6666666666666667    I1365
    0.4593747300082475    0.8333333333333334    0.0000000000000000    I1366
    0.4593747300082475    0.8333333333333334    0.3333333333333334    I1367
    0.4593747300082475    0.8333333333333334    0.6666666666666667    I1368
    0.7927080633415808    0.1666666666666667    0.0000000000000000    I1369
    0.7927080633415808    0.1666666666666667    0.3333333333333334    I1370
    0.7927080633415808    0.1666666666666667    0.6666666666666667    I1371
    0.7927080633415808    0.5000000000000000    0.0000000000000000    I1372
    0.7927080633415808    0.5000000000000000    0.3333333333333334    I1373
    0.7927080633415808    0.5000000000000000    0.6666666666666667    I1374
    0.7927080633415808    0.8333333333333334    0.0000000000000000    I1375
    0.7927080633415808    0.8333333333333334    0.3333333333333334    I1376
    0.7927080633415808    0.8333333333333334    0.6666666666666667    I1377
    0.1260413966749141    0.1666666666666667    0.1666666666666667    I1378
    0.1260413966749141    0.1666666666666667    0.5000000000000000    I1379
    0.1260413966749141    0.1666666666666667    0.8333333333333334    I1380
    0.1260413966749141    0.5000000000000000    0.1666666666666667    I1381
    0.1260413966749141    0.5000000000000000    0.5000000000000000    I1382
    0.1260413966749141    0.5000000000000000    0.8333333333333334    I1383
    0.1260413966749141    0.8333333333333334    0.1666666666666667    I1384
    0.1260413966749141    0.8333333333333334    0.5000000000000000    I1385
    0.1260413966749141    0.8333333333333334    0.8333333333333334    I1386
    0.4593747300082475    0.1666666666666667    0.1666666666666667    I1387
    0.4593747300082475    0.1666666666666667    0.5000000000000000    I1388
    0.4593747300082475    0.1666666666666667    0.8333333333333334    I1389
    0.4593747300082475    0.5000000000000000    0.1666666666666667    I1390
    0.4593747300082475    0.5000000000000000    0.5000000000000000    I1391
    0.4593747300082475    0.5000000000000000    0.8333333333333334    I1392
    0.4593747300082475    0.8333333333333334    0.1666666666666667    I1393
    0.4593747300082475    0.8333333333333334    0.5000000000000000    I1394
    0.4593747300082475    0.8333333333333334    0.8333333333333334    I1395
    0.7927080633415808    0.1666666666666667    0.1666666666666667    I1396
    0.7927080633415808    0.1666666666666667    0.5000000000000000    I1397
    0.7927080633415808    0.1666666666666667    0.8333333333333334    I1398
    0.7927080633415808    0.5000000000000000    0.1666666666666667    I1399
    0.7927080633415808    0.5000000000000000    0.5000000000000000    I1400
    0.7927080633415808    0.5000000000000000    0.8333333333333334    I1401
    0.7927080633415808    0.8333333333333334    0.1666666666666667    I1402
    0.7927080633415808    0.8333333333333334    0.5000000000000000    I1403
    0.7927080633415808    0.8333333333333334    0.8333333333333334    I1404
    0.2927080633415808    0.0000000000000000    0.0000000000000000    I1405
    0.2927080633415808    0.0000000000000000    0.3333333333333334    I1406
    0.2927080633415808    0.0000000000000000    0.6666666666666667    I1407
    0.2927080633415808    0.3333333333333334    0.0000000000000000    I1408
    0.2927080633415808    0.3333333333333334    0.3333333333333334    I1409
    0.2927080633415808    0.3333333333333334    0.6666666666666667    I1410
    0.2927080633415808    0.6666666666666667    0.0000000000000000    I1411
    0.2927080633415808    0.6666666666666667    0.3333333333333334    I1412
    0.2927080633415808    0.6666666666666667    0.6666666666666667    I1413
    0.6260413966749141    0.0000000000000000    0.0000000000000000    I1414
    0.6260413966749141    0.0000000000000000    0.3333333333333334    I1415
    0.6260413966749141    0.0000000000000000    0.6666666666666667    I1416
    0.6260413966749141    0.3333333333333334    0.0000000000000000    I1417
    0.6260413966749141    0.3333333333333334    0.3333333333333334    I1418
    0.6260413966749141    0.3333333333333334    0.6666666666666667    I1419
    0.6260413966749141    0.6666666666666667    0.0000000000000000    I1420
    0.6260413966749141    0.6666666666666667    0.3333333333333334    I1421
    0.6260413966749141    0.6666666666666667    0.6666666666666667    I1422
    0.9593747300082475    0.0000000000000000    0.0000000000000000    I1423
    0.9593747300082475    0.0000000000000000    0.3333333333333334    I1424
    0.9593747300082475    0.0000000000000000    0.6666666666666667    I1425
    0.9593747300082475    0.3333333333333334    0.0000000000000000    I1426
    0.9593747300082475    0.3333333333333334    0.3333333333333334    I1427
    0.9593747300082475    0.3333333333333334    0.6666666666666667    I1428
    0.9593747300082475    0.6666666666666667    0.0000000000000000    I1429
    0.9593747300082475    0.6666666666666667    0.3333333333333334    I1430
    0.9593747300082475    0.6666666666666667    0.6666666666666667    I1431
    0.2927080633415808    0.0000000000000000    0.1666666666666667    I1432
    0.2927080633415808    0.0000000000000000    0.5000000000000000    I1433
    0.2927080633415808    0.0000000000000000    0.8333333333333334    I1434
    0.2927080633415808    0.3333333333333334    0.1666666666666667    I1435
    0.2927080633415808    0.3333333333333334    0.5000000000000000    I1436
    0.2927080633415808    0.3333333333333334    0.8333333333333334    I1437
    0.2927080633415808    0.6666666666666667    0.1666666666666667    I1438
    0.2927080633415808    0.6666666666666667    0.5000000000000000    I1439
    0.2927080633415808    0.6666666666666667    0.8333333333333334    I1440
    0.6260413966749141    0.0000000000000000    0.1666666666666667    I1441
    0.6260413966749141    0.0000000000000000    0.5000000000000000    I1442
    0.6260413966749141    0.0000000000000000    0.8333333333333334    I1443
    0.6260413966749141    0.3333333333333334    0.1666666666666667    I1444
    0.6260413966749141    0.3333333333333334    0.5000000000000000    I1445
    0.6260413966749141    0.3333333333333334    0.8333333333333334    I1446
    0.6260413966749141    0.6666666666666667    0.1666666666666667    I1447
    0.6260413966749141    0.6666666666666667    0.5000000000000000    I1448
    0.6260413966749141    0.6666666666666667    0.8333333333333334    I1449
    0.9593747300082475    0.0000000000000000    0.1666666666666667    I1450
    0.9593747300082475    0.0000000000000000    0.5000000000000000    I1451
    0.9593747300082475    0.0000000000000000    0.8333333333333334    I1452
    0.9593747300082475    0.3333333333333334    0.1666666666666667    I1453
    0.9593747300082475    0.3333333333333334    0.5000000000000000    I1454
    0.9593747300082475    0.3333333333333334    0.8333333333333334    I1455
    0.9593747300082475    0.6666666666666667    0.1666666666666667    I1456
    0.9593747300082475    0.6666666666666667    0.5000000000000000    I1457
    0.9593747300082475    0.6666666666666667    0.8333333333333334    I1458
    0.2927080633415808    0.1666666666666667    0.0000000000000000    I1459
    0.2927080633415808    0.1666666666666667    0.3333333333333334    I1460
    0.2927080633415808    0.1666666666666667    0.6666666666666667    I1461
    0.2927080633415808    0.5000000000000000    0.0000000000000000    I1462
    0.2927080633415808    0.5000000000000000    0.3333333333333334    I1463
    0.2927080633415808    0.5000000000000000    0.6666666666666667    I1464
    0.2927080633415808    0.8333333333333334    0.0000000000000000    I1465
    0.2927080633415808    0.8333333333333334    0.3333333333333334    I1466
    0.2927080633415808    0.8333333333333334    0.6666666666666667    I1467
    0.6260413966749141    0.1666666666666667    0.0000000000000000    I1468
    0.6260413966749141    0.1666666666666667    0.3333333333333334    I1469
    0.6260413966749141    0.1666666666666667    0.6666666666666667    I1470
    0.6260413966749141    0.5000000000000000    0.0000000000000000    I1471
    0.6260413966749141    0.5000000000000000    0.3333333333333334    I1472
    0.6260413966749141    0.5000000000000000    0.6666666666666667    I1473
    0.6260413966749141    0.8333333333333334    0.0000000000000000    I1474
    0.6260413966749141    0.8333333333333334    0.3333333333333334    I1475
    0.6260413966749141    0.8333333333333334    0.6666666666666667    I1476
    0.9593747300082475    0.1666666666666667    0.0000000000000000    I1477
    0.9593747300082475    0.1666666666666667    0.3333333333333334    I1478
    0.9593747300082475    0.1666666666666667    0.6666666666666667    I1479
    0.9593747300082475    0.5000000000000000    0.0000000000000000    I1480
    0.9593747300082475    0.5000000000000000    0.3333333333333334    I1481
    0.9593747300082475    0.5000000000000000    0.6666666666666667    I1482
    0.9593747300082475    0.8333333333333334    0.0000000000000000    I1483
    0.9593747300082475    0.8333333333333334    0.3333333333333334    I1484
    0.9593747300082475    0.8333333333333334    0.6666666666666667    I1485
    0.2927080633415808    0.1666666666666667    0.1666666666666667    I1486
    0.2927080633415808    0.1666666666666667    0.5000000000000000    I1487
    0.2927080633415808    0.1666666666666667    0.8333333333333334    I1488
    0.2927080633415808    0.5000000000000000    0.1666666666666667    I1489
    0.2927080633415808    0.5000000000000000    0.5000000000000000    I1490
    0.2927080633415808    0.5000000000000000    0.8333333333333334    I1491
    0.2927080633415808    0.8333333333333334    0.1666666666666667    I1492
    0.2927080633415808    0.8333333333333334    0.5000000000000000    I1493
    0.2927080633415808    0.8333333333333334    0.8333333333333334    I1494
    0.6260413966749141    0.1666666666666667    0.1666666666666667    I1495
    0.6260413966749141    0.1666666666666667    0.5000000000000000    I1496
    0.6260413966749141    0.1666666666666667    0.8333333333333334    I1497
    0.6260413966749141    0.5000000000000000    0.1666666666666667    I1498
    0.6260413966749141    0.5000000000000000    0.5000000000000000    I1499
    0.6260413966749141    0.5000000000000000    0.8333333333333334    I1500
    0.6260413966749141    0.8333333333333334    0.1666666666666667    I1501
    0.6260413966749141    0.8333333333333334    0.5000000000000000    I1502
    0.6260413966749141    0.8333333333333334    0.8333333333333334    I1503
    0.9593747300082475    0.1666666666666667    0.1666666666666667    I1504
    0.9593747300082475    0.1666666666666667    0.5000000000000000    I1505
    0.9593747300082475    0.1666666666666667    0.8333333333333334    I1506
    0.9593747300082475    0.5000000000000000    0.1666666666666667    I1507
    0.9593747300082475    0.5000000000000000    0.5000000000000000    I1508
    0.9593747300082475    0.5000000000000000    0.8333333333333334    I1509
    0.9593747300082475    0.8333333333333334    0.1666666666666667    I1510
    0.9593747300082475    0.8333333333333334    0.5000000000000000    I1511
    0.9593747300082475    0.8333333333333334    0.8333333333333334    I1512
    0.0000000000000000    0.0427080633415808    0.0833333333333334    I1513
    0.0000000000000000    0.0427080633415808    0.4166666666666667    I1514
    0.0000000000000000    0.0427080633415808    0.7500000000000000    I1515
    0.0000000000000000    0.3760413966749141    0.0833333333333334    I1516
    0.0000000000000000    0.3760413966749141    0.4166666666666667    I1517
    0.0000000000000000    0.3760413966749141    0.7500000000000000    I1518
    0.0000000000000000    0.7093747300082474    0.0833333333333334    I1519
    0.0000000000000000    0.7093747300082474    0.4166666666666667    I1520
    0.0000000000000000    0.7093747300082474    0.7500000000000000    I1521
    0.3333333333333334    0.0427080633415808    0.0833333333333334    I1522
    0.3333333333333334    0.0427080633415808    0.4166666666666667    I1523
    0.3333333333333334    0.0427080633415808    0.7500000000000000    I1524
    0.3333333333333334    0.3760413966749141    0.0833333333333334    I1525
    0.3333333333333334    0.3760413966749141    0.4166666666666667    I1526
    0.3333333333333334    0.3760413966749141    0.7500000000000000    I1527
    0.3333333333333334    0.7093747300082474    0.0833333333333334    I1528
    0.3333333333333334    0.7093747300082474    0.4166666666666667    I1529
    0.3333333333333334    0.7093747300082474    0.7500000000000000    I1530
    0.6666666666666667    0.0427080633415808    0.0833333333333334    I1531
    0.6666666666666667    0.0427080633415808    0.4166666666666667    I1532
    0.6666666666666667    0.0427080633415808    0.7500000000000000    I1533
    0.6666666666666667    0.3760413966749141    0.0833333333333334    I1534
    0.6666666666666667    0.3760413966749141    0.4166666666666667    I1535
    0.6666666666666667    0.3760413966749141    0.7500000000000000    I1536
    0.6666666666666667    0.7093747300082474    0.0833333333333334    I1537
    0.6666666666666667    0.7093747300082474    0.4166666666666667    I1538
    0.6666666666666667    0.7093747300082474    0.7500000000000000    I1539
    0.0000000000000000    0.0427080633415808    0.2500000000000000    I1540
    0.0000000000000000    0.0427080633415808    0.5833333333333334    I1541
    0.0000000000000000    0.0427080633415808    0.9166666666666666    I1542
    0.0000000000000000    0.3760413966749141    0.2500000000000000    I1543
    0.0000000000000000    0.3760413966749141    0.5833333333333334    I1544
    0.0000000000000000    0.3760413966749141    0.9166666666666666    I1545
    0.0000000000000000    0.7093747300082474    0.2500000000000000    I1546
    0.0000000000000000    0.7093747300082474    0.5833333333333334    I1547
    0.0000000000000000    0.7093747300082474    0.9166666666666666    I1548
    0.3333333333333334    0.0427080633415808    0.2500000000000000    I1549
    0.3333333333333334    0.0427080633415808    0.5833333333333334    I1550
    0.3333333333333334    0.0427080633415808    0.9166666666666666    I1551
    0.3333333333333334    0.3760413966749141    0.2500000000000000    I1552
    0.3333333333333334    0.3760413966749141    0.5833333333333334    I1553
    0.3333333333333334    0.3760413966749141    0.9166666666666666    I1554
    0.3333333333333334    0.7093747300082474    0.2500000000000000    I1555
    0.3333333333333334    0.7093747300082474    0.5833333333333334    I1556
    0.3333333333333334    0.7093747300082474    0.9166666666666666    I1557
    0.6666666666666667    0.0427080633415808    0.2500000000000000    I1558
    0.6666666666666667    0.0427080633415808    0.5833333333333334    I1559
    0.6666666666666667    0.0427080633415808    0.9166666666666666    I1560
    0.6666666666666667    0.3760413966749141    0.2500000000000000    I1561
    0.6666666666666667    0.3760413966749141    0.5833333333333334    I1562
    0.6666666666666667    0.3760413966749141    0.9166666666666666    I1563
    0.6666666666666667    0.7093747300082474    0.2500000000000000    I1564
    0.6666666666666667    0.7093747300082474    0.5833333333333334    I1565
    0.6666666666666667    0.7093747300082474    0.9166666666666666    I1566
    0.0000000000000000    0.2093747300082475    0.0833333333333334    I1567
    0.0000000000000000    0.2093747300082475    0.4166666666666667    I1568
    0.0000000000000000    0.2093747300082475    0.7500000000000000    I1569
    0.0000000000000000    0.5427080633415808    0.0833333333333334    I1570
    0.0000000000000000    0.5427080633415808    0.4166666666666667    I1571
    0.0000000000000000    0.5427080633415808    0.7500000000000000    I1572
    0.0000000000000000    0.8760413966749141    0.0833333333333334    I1573
    0.0000000000000000    0.8760413966749141    0.4166666666666667    I1574
    0.0000000000000000    0.8760413966749141    0.7500000000000000    I1575
    0.3333333333333334    0.2093747300082475    0.0833333333333334    I1576
    0.3333333333333334    0.2093747300082475    0.4166666666666667    I1577
    0.3333333333333334    0.2093747300082475    0.7500000000000000    I1578
    0.3333333333333334    0.5427080633415808    0.0833333333333334    I1579
    0.3333333333333334    0.5427080633415808    0.4166666666666667    I1580
    0.3333333333333334    0.5427080633415808    0.7500000000000000    I1581
    0.3333333333333334    0.8760413966749141    0.0833333333333334    I1582
    0.3333333333333334    0.8760413966749141    0.4166666666666667    I1583
    0.3333333333333334    0.8760413966749141    0.7500000000000000    I1584
    0.6666666666666667    0.2093747300082475    0.0833333333333334    I1585
    0.6666666666666667    0.2093747300082475    0.4166666666666667    I1586
    0.6666666666666667    0.2093747300082475    0.7500000000000000    I1587
    0.6666666666666667    0.5427080633415808    0.0833333333333334    I1588
    0.6666666666666667    0.5427080633415808    0.4166666666666667    I1589
    0.6666666666666667    0.5427080633415808    0.7500000000000000    I1590
    0.6666666666666667    0.8760413966749141    0.0833333333333334    I1591
    0.6666666666666667    0.8760413966749141    0.4166666666666667    I1592
    0.6666666666666667    0.8760413966749141    0.7500000000000000    I1593
    0.0000000000000000    0.2093747300082475    0.2500000000000000    I1594
    0.0000000000000000    0.2093747300082475    0.5833333333333334    I1595
    0.0000000000000000    0.2093747300082475    0.9166666666666666    I1596
    0.0000000000000000    0.5427080633415808    0.2500000000000000    I1597
    0.0000000000000000    0.5427080633415808    0.5833333333333334    I1598
    0.0000000000000000    0.5427080633415808    0.9166666666666666    I1599
    0.0000000000000000    0.8760413966749141    0.2500000000000000    I1600
    0.0000000000000000    0.8760413966749141    0.5833333333333334    I1601
    0.0000000000000000    0.8760413966749141    0.9166666666666666    I1602
    0.3333333333333334    0.2093747300082475    0.2500000000000000    I1603
    0.3333333333333334    0.2093747300082475    0.5833333333333334    I1604
    0.3333333333333334    0.2093747300082475    0.9166666666666666    I1605
    0.3333333333333334    0.5427080633415808    0.2500000000000000    I1606
    0.3333333333333334    0.5427080633415808    0.5833333333333334    I1607
    0.3333333333333334    0.5427080633415808    0.9166666666666666    I1608
    0.3333333333333334    0.8760413966749141    0.2500000000000000    I1609
    0.3333333333333334    0.8760413966749141    0.5833333333333334    I1610
    0.3333333333333334    0.8760413966749141    0.9166666666666666    I1611
    0.6666666666666667    0.2093747300082475    0.2500000000000000    I1612
    0.6666666666666667    0.2093747300082475    0.5833333333333334    I1613
    0.6666666666666667    0.2093747300082475    0.9166666666666666    I1614
    0.6666666666666667    0.5427080633415808    0.2500000000000000    I1615
    0.6666666666666667    0.5427080633415808    0.5833333333333334    I1616
    0.6666666666666667    0.5427080633415808    0.9166666666666666    I1617
    0.6666666666666667    0.8760413966749141    0.2500000000000000    I1618
    0.6666666666666667    0.8760413966749141    0.5833333333333334    I1619
    0.6666666666666667    0.8760413966749141    0.9166666666666666    I1620
    0.1666666666666667    0.0427080633415808    0.0833333333333334    I1621
    0.1666666666666667    0.0427080633415808    0.4166666666666667    I1622
    0.1666666666666667    0.0427080633415808    0.7500000000000000    I1623
    0.1666666666666667    0.3760413966749141    0.0833333333333334    I1624
    0.1666666666666667    0.3760413966749141    0.4166666666666667    I1625
    0.1666666666666667    0.3760413966749141    0.7500000000000000    I1626
    0.1666666666666667    0.7093747300082474    0.0833333333333334    I1627
    0.1666666666666667    0.7093747300082474    0.4166666666666667    I1628
    0.1666666666666667    0.7093747300082474    0.7500000000000000    I1629
    0.5000000000000000    0.0427080633415808    0.0833333333333334    I1630
    0.5000000000000000    0.0427080633415808    0.4166666666666667    I1631
    0.5000000000000000    0.0427080633415808    0.7500000000000000    I1632
    0.5000000000000000    0.3760413966749141    0.0833333333333334    I1633
    0.5000000000000000    0.3760413966749141    0.4166666666666667    I1634
    0.5000000000000000    0.3760413966749141    0.7500000000000000    I1635
    0.5000000000000000    0.7093747300082474    0.0833333333333334    I1636
    0.5000000000000000    0.7093747300082474    0.4166666666666667    I1637
    0.5000000000000000    0.7093747300082474    0.7500000000000000    I1638
    0.8333333333333334    0.0427080633415808    0.0833333333333334    I1639
    0.8333333333333334    0.0427080633415808    0.4166666666666667    I1640
    0.8333333333333334    0.0427080633415808    0.7500000000000000    I1641
    0.8333333333333334    0.3760413966749141    0.0833333333333334    I1642
    0.8333333333333334    0.3760413966749141    0.4166666666666667    I1643
    0.8333333333333334    0.3760413966749141    0.7500000000000000    I1644
    0.8333333333333334    0.7093747300082474    0.0833333333333334    I1645
    0.8333333333333334    0.7093747300082474    0.4166666666666667    I1646
    0.8333333333333334    0.7093747300082474    0.7500000000000000    I1647
    0.1666666666666667    0.0427080633415808    0.2500000000000000    I1648
    0.1666666666666667    0.0427080633415808    0.5833333333333334    I1649
    0.1666666666666667    0.0427080633415808    0.9166666666666666    I1650
    0.1666666666666667    0.3760413966749141    0.2500000000000000    I1651
    0.1666666666666667    0.3760413966749141    0.5833333333333334    I1652
    0.1666666666666667    0.3760413966749141    0.9166666666666666    I1653
    0.1666666666666667    0.7093747300082474    0.2500000000000000    I1654
    0.1666666666666667    0.7093747300082474    0.5833333333333334    I1655
    0.1666666666666667    0.7093747300082474    0.9166666666666666    I1656
    0.5000000000000000    0.0427080633415808    0.2500000000000000    I1657
    0.5000000000000000    0.0427080633415808    0.5833333333333334    I1658
    0.5000000000000000    0.0427080633415808    0.9166666666666666    I1659
    0.5000000000000000    0.3760413966749141    0.2500000000000000    I1660
    0.5000000000000000    0.3760413966749141    0.5833333333333334    I1661
    0.5000000000000000    0.3760413966749141    0.9166666666666666    I1662
    0.5000000000000000    0.7093747300082474    0.2500000000000000    I1663
    0.5000000000000000    0.7093747300082474    0.5833333333333334    I1664
    0.5000000000000000    0.7093747300082474    0.9166666666666666    I1665
    0.8333333333333334    0.0427080633415808    0.2500000000000000    I1666
    0.8333333333333334    0.0427080633415808    0.5833333333333334    I1667
    0.8333333333333334    0.0427080633415808    0.9166666666666666    I1668
    0.8333333333333334    0.3760413966749141    0.2500000000000000    I1669
    0.8333333333333334    0.3760413966749141    0.5833333333333334    I1670
    0.8333333333333334    0.3760413966749141    0.9166666666666666    I1671
    0.8333333333333334    0.7093747300082474    0.2500000000000000    I1672
    0.8333333333333334    0.7093747300082474    0.5833333333333334    I1673
    0.8333333333333334    0.7093747300082474    0.9166666666666666    I1674
    0.1666666666666667    0.2093747300082475    0.0833333333333334    I1675
    0.1666666666666667    0.2093747300082475    0.4166666666666667    I1676
    0.1666666666666667    0.2093747300082475    0.7500000000000000    I1677
    0.1666666666666667    0.5427080633415808    0.0833333333333334    I1678
    0.1666666666666667    0.5427080633415808    0.4166666666666667    I1679
    0.1666666666666667    0.5427080633415808    0.7500000000000000    I1680
    0.1666666666666667    0.8760413966749141    0.0833333333333334    I1681
    0.1666666666666667    0.8760413966749141    0.4166666666666667    I1682
    0.1666666666666667    0.8760413966749141    0.7500000000000000    I1683
    0.5000000000000000    0.2093747300082475    0.0833333333333334    I1684
    0.5000000000000000    0.2093747300082475    0.4166666666666667    I1685
    0.5000000000000000    0.2093747300082475    0.7500000000000000    I1686
    0.5000000000000000    0.5427080633415808    0.0833333333333334    I1687
    0.5000000000000000    0.5427080633415808    0.4166666666666667    I1688
    0.5000000000000000    0.5427080633415808    0.7500000000000000    I1689
    0.5000000000000000    0.8760413966749141    0.0833333333333334    I1690
    0.5000000000000000    0.8760413966749141    0.4166666666666667    I1691
    0.5000000000000000    0.8760413966749141    0.7500000000000000    I1692
    0.8333333333333334    0.2093747300082475    0.0833333333333334    I1693
    0.8333333333333334    0.2093747300082475    0.4166666666666667    I1694
    0.8333333333333334    0.2093747300082475    0.7500000000000000    I1695
    0.8333333333333334    0.5427080633415808    0.0833333333333334    I1696
    0.8333333333333334    0.5427080633415808    0.4166666666666667    I1697
    0.8333333333333334    0.5427080633415808    0.7500000000000000    I1698
    0.8333333333333334    0.8760413966749141    0.0833333333333334    I1699
    0.8333333333333334    0.8760413966749141    0.4166666666666667    I1700
    0.8333333333333334    0.8760413966749141    0.7500000000000000    I1701
    0.1666666666666667    0.2093747300082475    0.2500000000000000    I1702
    0.1666666666666667    0.2093747300082475    0.5833333333333334    I1703
    0.1666666666666667    0.2093747300082475    0.9166666666666666    I1704
    0.1666666666666667    0.5427080633415808    0.2500000000000000    I1705
    0.1666666666666667    0.5427080633415808    0.5833333333333334    I1706
    0.1666666666666667    0.5427080633415808    0.9166666666666666    I1707
    0.1666666666666667    0.8760413966749141    0.2500000000000000    I1708
    0.1666666666666667    0.8760413966749141    0.5833333333333334    I1709
    0.1666666666666667    0.8760413966749141    0.9166666666666666    I1710
    0.5000000000000000    0.2093747300082475    0.2500000000000000    I1711
    0.5000000000000000    0.2093747300082475    0.5833333333333334    I1712
    0.5000000000000000    0.2093747300082475    0.9166666666666666    I1713
    0.5000000000000000    0.5427080633415808    0.2500000000000000    I1714
    0.5000000000000000    0.5427080633415808    0.5833333333333334    I1715
    0.5000000000000000    0.5427080633415808    0.9166666666666666    I1716
    0.5000000000000000    0.8760413966749141    0.2500000000000000    I1717
    0.5000000000000000    0.8760413966749141    0.5833333333333334    I1718
    0.5000000000000000    0.8760413966749141    0.9166666666666666    I1719
    0.8333333333333334    0.2093747300082475    0.2500000000000000    I1720
    0.8333333333333334    0.2093747300082475    0.5833333333333334    I1721
    0.8333333333333334    0.2093747300082475    0.9166666666666666    I1722
    0.8333333333333334    0.5427080633415808    0.2500000000000000    I1723
    0.8333333333333334    0.5427080633415808    0.5833333333333334    I1724
    0.8333333333333334    0.5427080633415808    0.9166666666666666    I1725
    0.8333333333333334    0.8760413966749141    0.2500000000000000    I1726
    0.8333333333333334    0.8760413966749141    0.5833333333333334    I1727
    0.8333333333333334    0.8760413966749141    0.9166666666666666    I1728
    0.0000000000000000    0.1239586033250859    0.0833333333333334    I1729
    0.0000000000000000    0.1239586033250859    0.4166666666666667    I1730
    0.0000000000000000    0.1239586033250859    0.7500000000000000    I1731
    0.0000000000000000    0.4572919366584193    0.0833333333333334    I1732
    0.0000000000000000    0.4572919366584193    0.4166666666666667    I1733
    0.0000000000000000    0.4572919366584193    0.7500000000000000    I1734
    0.0000000000000000    0.7906252699917526    0.0833333333333334    I1735
    0.0000000000000000    0.7906252699917526    0.4166666666666667    I1736
    0.0000000000000000    0.7906252699917526    0.7500000000000000    I1737
    0.3333333333333334    0.1239586033250859    0.0833333333333334    I1738
    0.3333333333333334    0.1239586033250859    0.4166666666666667    I1739
    0.3333333333333334    0.1239586033250859    0.7500000000000000    I1740
    0.3333333333333334    0.4572919366584193    0.0833333333333334    I1741
    0.3333333333333334    0.4572919366584193    0.4166666666666667    I1742
    0.3333333333333334    0.4572919366584193    0.7500000000000000    I1743
    0.3333333333333334    0.7906252699917526    0.0833333333333334    I1744
    0.3333333333333334    0.7906252699917526    0.4166666666666667    I1745
    0.3333333333333334    0.7906252699917526    0.7500000000000000    I1746
    0.6666666666666667    0.1239586033250859    0.0833333333333334    I1747
    0.6666666666666667    0.1239586033250859    0.4166666666666667    I1748
    0.6666666666666667    0.1239586033250859    0.7500000000000000    I1749
    0.6666666666666667    0.4572919366584193    0.0833333333333334    I1750
    0.6666666666666667    0.4572919366584193    0.4166666666666667    I1751
    0.6666666666666667    0.4572919366584193    0.7500000000000000    I1752
    0.6666666666666667    0.7906252699917526    0.0833333333333334    I1753
    0.6666666666666667    0.7906252699917526    0.4166666666666667    I1754
    0.6666666666666667    0.7906252699917526    0.7500000000000000    I1755
    0.0000000000000000    0.1239586033250859    0.2500000000000000    I1756
    0.0000000000000000    0.1239586033250859    0.5833333333333334    I1757
    0.0000000000000000    0.1239586033250859    0.9166666666666666    I1758
    0.0000000000000000    0.4572919366584193    0.2500000000000000    I1759
    0.0000000000000000    0.4572919366584193    0.5833333333333334    I1760
    0.0000000000000000    0.4572919366584193    0.9166666666666666    I1761
    0.0000000000000000    0.7906252699917526    0.2500000000000000    I1762
    0.0000000000000000    0.7906252699917526    0.5833333333333334    I1763
    0.0000000000000000    0.7906252699917526    0.9166666666666666    I1764
    0.3333333333333334    0.1239586033250859    0.2500000000000000    I1765
    0.3333333333333334    0.1239586033250859    0.5833333333333334    I1766
    0.3333333333333334    0.1239586033250859    0.9166666666666666    I1767
    0.3333333333333334    0.4572919366584193    0.2500000000000000    I1768
    0.3333333333333334    0.4572919366584193    0.5833333333333334    I1769
    0.3333333333333334    0.4572919366584193    0.9166666666666666    I1770
    0.3333333333333334    0.7906252699917526    0.2500000000000000    I1771
    0.3333333333333334    0.7906252699917526    0.5833333333333334    I1772
    0.3333333333333334    0.7906252699917526    0.9166666666666666    I1773
    0.6666666666666667    0.1239586033250859    0.2500000000000000    I1774
    0.6666666666666667    0.1239586033250859    0.5833333333333334    I1775
    0.6666666666666667    0.1239586033250859    0.9166666666666666    I1776
    0.6666666666666667    0.4572919366584193    0.2500000000000000    I1777
    0.6666666666666667    0.4572919366584193    0.5833333333333334    I1778
    0.6666666666666667    0.4572919366584193    0.9166666666666666    I1779
    0.6666666666666667    0.7906252699917526    0.2500000000000000    I1780
    0.6666666666666667    0.7906252699917526    0.5833333333333334    I1781
    0.6666666666666667    0.7906252699917526    0.9166666666666666    I1782
    0.0000000000000000    0.2906252699917526    0.0833333333333334    I1783
    0.0000000000000000    0.2906252699917526    0.4166666666666667    I1784
    0.0000000000000000    0.2906252699917526    0.7500000000000000    I1785
    0.0000000000000000    0.6239586033250859    0.0833333333333334    I1786
    0.0000000000000000    0.6239586033250859    0.4166666666666667    I1787
    0.0000000000000000    0.6239586033250859    0.7500000000000000    I1788
    0.0000000000000000    0.9572919366584193    0.0833333333333334    I1789
    0.0000000000000000    0.9572919366584193    0.4166666666666667    I1790
    0.0000000000000000    0.9572919366584193    0.7500000000000000    I1791
    0.3333333333333334    0.2906252699917526    0.0833333333333334    I1792
    0.3333333333333334    0.2906252699917526    0.4166666666666667    I1793
    0.3333333333333334    0.2906252699917526    0.7500000000000000    I1794
    0.3333333333333334    0.6239586033250859    0.0833333333333334    I1795
    0.3333333333333334    0.6239586033250859    0.4166666666666667    I1796
    0.3333333333333334    0.6239586033250859    0.7500000000000000    I1797
    0.3333333333333334    0.9572919366584193    0.0833333333333334    I1798
    0.3333333333333334    0.9572919366584193    0.4166666666666667    I1799
    0.3333333333333334    0.9572919366584193    0.7500000000000000    I1800
    0.6666666666666667    0.2906252699917526    0.0833333333333334    I1801
    0.6666666666666667    0.2906252699917526    0.4166666666666667    I1802
    0.6666666666666667    0.2906252699917526    0.7500000000000000    I1803
    0.6666666666666667    0.6239586033250859    0.0833333333333334    I1804
    0.6666666666666667    0.6239586033250859    0.4166666666666667    I1805
    0.6666666666666667    0.6239586033250859    0.7500000000000000    I1806
    0.6666666666666667    0.9572919366584193    0.0833333333333334    I1807
    0.6666666666666667    0.9572919366584193    0.4166666666666667    I1808
    0.6666666666666667    0.9572919366584193    0.7500000000000000    I1809
    0.0000000000000000    0.2906252699917526    0.2500000000000000    I1810
    0.0000000000000000    0.2906252699917526    0.5833333333333334    I1811
    0.0000000000000000    0.2906252699917526    0.9166666666666666    I1812
    0.0000000000000000    0.6239586033250859    0.2500000000000000    I1813
    0.0000000000000000    0.6239586033250859    0.5833333333333334    I1814
    0.0000000000000000    0.6239586033250859    0.9166666666666666    I1815
    0.0000000000000000    0.9572919366584193    0.2500000000000000    I1816
    0.0000000000000000    0.9572919366584193    0.5833333333333334    I1817
    0.0000000000000000    0.9572919366584193    0.9166666666666666    I1818
    0.3333333333333334    0.2906252699917526    0.2500000000000000    I1819
    0.3333333333333334    0.2906252699917526    0.5833333333333334    I1820
    0.3333333333333334    0.2906252699917526    0.9166666666666666    I1821
    0.3333333333333334    0.6239586033250859    0.2500000000000000    I1822
    0.3333333333333334    0.6239586033250859    0.5833333333333334    I1823
    0.3333333333333334    0.6239586033250859    0.9166666666666666    I1824
    0.3333333333333334    0.9572919366584193    0.2500000000000000    I1825
    0.3333333333333334    0.9572919366584193    0.5833333333333334    I1826
    0.3333333333333334    0.9572919366584193    0.9166666666666666    I1827
    0.6666666666666667    0.2906252699917526    0.2500000000000000    I1828
    0.6666666666666667    0.2906252699917526    0.5833333333333334    I1829
    0.6666666666666667    0.2906252699917526    0.9166666666666666    I1830
    0.6666666666666667    0.6239586033250859    0.2500000000000000    I1831
    0.6666666666666667    0.6239586033250859    0.5833333333333334    I1832
    0.6666666666666667    0.6239586033250859    0.9166666666666666    I1833
    0.6666666666666667    0.9572919366584193    0.2500000000000000    I1834
    0.6666666666666667    0.9572919366584193    0.5833333333333334    I1835
    0.6666666666666667    0.9572919366584193    0.9166666666666666    I1836
    0.1666666666666667    0.1239586033250859    0.0833333333333334    I1837
    0.1666666666666667    0.1239586033250859    0.4166666666666667    I1838
    0.1666666666666667    0.1239586033250859    0.7500000000000000    I1839
    0.1666666666666667    0.4572919366584193    0.0833333333333334    I1840
    0.1666666666666667    0.4572919366584193    0.4166666666666667    I1841
    0.1666666666666667    0.4572919366584193    0.7500000000000000    I1842
    0.1666666666666667    0.7906252699917526    0.0833333333333334    I1843
    0.1666666666666667    0.7906252699917526    0.4166666666666667    I1844
    0.1666666666666667    0.7906252699917526    0.7500000000000000    I1845
    0.5000000000000000    0.1239586033250859    0.0833333333333334    I1846
    0.5000000000000000    0.1239586033250859    0.4166666666666667    I1847
    0.5000000000000000    0.1239586033250859    0.7500000000000000    I1848
    0.5000000000000000    0.4572919366584193    0.0833333333333334    I1849
    0.5000000000000000    0.4572919366584193    0.4166666666666667    I1850
    0.5000000000000000    0.4572919366584193    0.7500000000000000    I1851
    0.5000000000000000    0.7906252699917526    0.0833333333333334    I1852
    0.5000000000000000    0.7906252699917526    0.4166666666666667    I1853
    0.5000000000000000    0.7906252699917526    0.7500000000000000    I1854
    0.8333333333333334    0.1239586033250859    0.0833333333333334    I1855
    0.8333333333333334    0.1239586033250859    0.4166666666666667    I1856
    0.8333333333333334    0.1239586033250859    0.7500000000000000    I1857
    0.8333333333333334    0.4572919366584193    0.0833333333333334    I1858
    0.8333333333333334    0.4572919366584193    0.4166666666666667    I1859
    0.8333333333333334    0.4572919366584193    0.7500000000000000    I1860
    0.8333333333333334    0.7906252699917526    0.0833333333333334    I1861
    0.8333333333333334    0.7906252699917526    0.4166666666666667    I1862
    0.8333333333333334    0.7906252699917526    0.7500000000000000    I1863
    0.1666666666666667    0.1239586033250859    0.2500000000000000    I1864
    0.1666666666666667    0.1239586033250859    0.5833333333333334    I1865
    0.1666666666666667    0.1239586033250859    0.9166666666666666    I1866
    0.1666666666666667    0.4572919366584193    0.2500000000000000    I1867
    0.1666666666666667    0.4572919366584193    0.5833333333333334    I1868
    0.1666666666666667    0.4572919366584193    0.9166666666666666    I1869
    0.1666666666666667    0.7906252699917526    0.2500000000000000    I1870
    0.1666666666666667    0.7906252699917526    0.5833333333333334    I1871
    0.1666666666666667    0.7906252699917526    0.9166666666666666    I1872
    0.5000000000000000    0.1239586033250859    0.2500000000000000    I1873
    0.5000000000000000    0.1239586033250859    0.5833333333333334    I1874
    0.5000000000000000    0.1239586033250859    0.9166666666666666    I1875
    0.5000000000000000    0.4572919366584193    0.2500000000000000    I1876
    0.5000000000000000    0.4572919366584193    0.5833333333333334    I1877
    0.5000000000000000    0.4572919366584193    0.9166666666666666    I1878
    0.5000000000000000    0.7906252699917526    0.2500000000000000    I1879
    0.5000000000000000    0.7906252699917526    0.5833333333333334    I1880
    0.5000000000000000    0.7906252699917526    0.9166666666666666    I1881
    0.8333333333333334    0.1239586033250859    0.2500000000000000    I1882
    0.8333333333333334    0.1239586033250859    0.5833333333333334    I1883
    0.8333333333333334    0.1239586033250859    0.9166666666666666    I1884
    0.8333333333333334    0.4572919366584193    0.2500000000000000    I1885
    0.8333333333333334    0.4572919366584193    0.5833333333333334    I1886
    0.8333333333333334    0.4572919366584193    0.9166666666666666    I1887
    0.8333333333333334    0.7906252699917526    0.2500000000000000    I1888
    0.8333333333333334    0.7906252699917526    0.5833333333333334    I1889
    0.8333333333333334    0.7906252699917526    0.9166666666666666    I1890
    0.1666666666666667    0.2906252699917526    0.0833333333333334    I1891
    0.1666666666666667    0.2906252699917526    0.4166666666666667    I1892
    0.1666666666666667    0.2906252699917526    0.7500000000000000    I1893
    0.1666666666666667    0.6239586033250859    0.0833333333333334    I1894
    0.1666666666666667    0.6239586033250859    0.4166666666666667    I1895
    0.1666666666666667    0.6239586033250859    0.7500000000000000    I1896
    0.1666666666666667    0.9572919366584193    0.0833333333333334    I1897
    0.1666666666666667    0.9572919366584193    0.4166666666666667    I1898
    0.1666666666666667    0.9572919366584193    0.7500000000000000    I1899
    0.5000000000000000    0.2906252699917526    0.0833333333333334    I1900
    0.5000000000000000    0.2906252699917526    0.4166666666666667    I1901
    0.5000000000000000    0.2906252699917526    0.7500000000000000    I1902
    0.5000000000000000    0.6239586033250859    0.0833333333333334    I1903
    0.5000000000000000    0.6239586033250859    0.4166666666666667    I1904
    0.5000000000000000    0.6239586033250859    0.7500000000000000    I1905
    0.5000000000000000    0.9572919366584193    0.0833333333333334    I1906
    0.5000000000000000    0.9572919366584193    0.4166666666666667    I1907
    0.5000000000000000    0.9572919366584193    0.7500000000000000    I1908
    0.8333333333333334    0.2906252699917526    0.0833333333333334    I1909
    0.8333333333333334    0.2906252699917526    0.4166666666666667    I1910
    0.8333333333333334    0.2906252699917526    0.7500000000000000    I1911
    0.8333333333333334    0.6239586033250859    0.0833333333333334    I1912
    0.8333333333333334    0.6239586033250859    0.4166666666666667    I1913
    0.8333333333333334    0.6239586033250859    0.7500000000000000    I1914
    0.8333333333333334    0.9572919366584193    0.0833333333333334    I1915
    0.8333333333333334    0.9572919366584193    0.4166666666666667    I1916
    0.8333333333333334    0.9572919366584193    0.7500000000000000    I1917
    0.1666666666666667    0.2906252699917526    0.2500000000000000    I1918
    0.1666666666666667    0.2906252699917526    0.5833333333333334    I1919
    0.1666666666666667    0.2906252699917526    0.9166666666666666    I1920
    0.1666666666666667    0.6239586033250859    0.2500000000000000    I1921
    0.1666666666666667    0.6239586033250859    0.5833333333333334    I1922
    0.1666666666666667    0.6239586033250859    0.9166666666666666    I1923
    0.1666666666666667    0.9572919366584193    0.2500000000000000    I1924
    0.1666666666666667    0.9572919366584193    0.5833333333333334    I1925
    0.1666666666666667    0.9572919366584193    0.9166666666666666    I1926
    0.5000000000000000    0.2906252699917526    0.2500000000000000    I1927
    0.5000000000000000    0.2906252699917526    0.5833333333333334    I1928
    0.5000000000000000    0.2906252699917526    0.9166666666666666    I1929
    0.5000000000000000    0.6239586033250859    0.2500000000000000    I1930
    0.5000000000000000    0.6239586033250859    0.5833333333333334    I1931
    0.5000000000000000    0.6239586033250859    0.9166666666666666    I1932
    0.5000000000000000    0.9572919366584193    0.2500000000000000    I1933
    0.5000000000000000    0.9572919366584193    0.5833333333333334    I1934
    0.5000000000000000    0.9572919366584193    0.9166666666666666    I1935
    0.8333333333333334    0.2906252699917526    0.2500000000000000    I1936
    0.8333333333333334    0.2906252699917526    0.5833333333333334    I1937
    0.8333333333333334    0.2906252699917526    0.9166666666666666    I1938
    0.8333333333333334    0.6239586033250859    0.2500000000000000    I1939
    0.8333333333333334    0.6239586033250859    0.5833333333333334    I1940
    0.8333333333333334    0.6239586033250859    0.9166666666666666    I1941
    0.8333333333333334    0.9572919366584193    0.2500000000000000    I1942
    0.8333333333333334    0.9572919366584193    0.5833333333333334    I1943
    0.8333333333333334    0.9572919366584193    0.9166666666666666    I1944
    0.1239586033250859    0.0000000000000000    0.0833333333333334    I1945
    0.1239586033250859    0.0000000000000000    0.4166666666666667    I1946
    0.1239586033250859    0.0000000000000000    0.7500000000000000    I1947
    0.1239586033250859    0.3333333333333334    0.0833333333333334    I1948
    0.1239586033250859    0.3333333333333334    0.4166666666666667    I1949
    0.1239586033250859    0.3333333333333334    0.7500000000000000    I1950
    0.1239586033250859    0.6666666666666667    0.0833333333333334    I1951
    0.1239586033250859    0.6666666666666667    0.4166666666666667    I1952
    0.1239586033250859    0.6666666666666667    0.7500000000000000    I1953
    0.4572919366584193    0.0000000000000000    0.0833333333333334    I1954
    0.4572919366584193    0.0000000000000000    0.4166666666666667    I1955
    0.4572919366584193    0.0000000000000000    0.7500000000000000    I1956
    0.4572919366584193    0.3333333333333334    0.0833333333333334    I1957
    0.4572919366584193    0.3333333333333334    0.4166666666666667    I1958
    0.4572919366584193    0.3333333333333334    0.7500000000000000    I1959
    0.4572919366584193    0.6666666666666667    0.0833333333333334    I1960
    0.4572919366584193    0.6666666666666667    0.4166666666666667    I1961
    0.4572919366584193    0.6666666666666667    0.7500000000000000    I1962
    0.7906252699917526    0.0000000000000000    0.0833333333333334    I1963
    0.7906252699917526    0.0000000000000000    0.4166666666666667    I1964
    0.7906252699917526    0.0000000000000000    0.7500000000000000    I1965
    0.7906252699917526    0.3333333333333334    0.0833333333333334    I1966
    0.7906252699917526    0.3333333333333334    0.4166666666666667    I1967
    0.7906252699917526    0.3333333333333334    0.7500000000000000    I1968
    0.7906252699917526    0.6666666666666667    0.0833333333333334    I1969
    0.7906252699917526    0.6666666666666667    0.4166666666666667    I1970
    0.7906252699917526    0.6666666666666667    0.7500000000000000    I1971
    0.1239586033250859    0.0000000000000000    0.2500000000000000    I1972
    0.1239586033250859    0.0000000000000000    0.5833333333333334    I1973
    0.1239586033250859    0.0000000000000000    0.9166666666666666    I1974
    0.1239586033250859    0.3333333333333334    0.2500000000000000    I1975
    0.1239586033250859    0.3333333333333334    0.5833333333333334    I1976
    0.1239586033250859    0.3333333333333334    0.9166666666666666    I1977
    0.1239586033250859    0.6666666666666667    0.2500000000000000    I1978
    0.1239586033250859    0.6666666666666667    0.5833333333333334    I1979
    0.1239586033250859    0.6666666666666667    0.9166666666666666    I1980
    0.4572919366584193    0.0000000000000000    0.2500000000000000    I1981
    0.4572919366584193    0.0000000000000000    0.5833333333333334    I1982
    0.4572919366584193    0.0000000000000000    0.9166666666666666    I1983
    0.4572919366584193    0.3333333333333334    0.2500000000000000    I1984
    0.4572919366584193    0.3333333333333334    0.5833333333333334    I1985
    0.4572919366584193    0.3333333333333334    0.9166666666666666    I1986
    0.4572919366584193    0.6666666666666667    0.2500000000000000    I1987
    0.4572919366584193    0.6666666666666667    0.5833333333333334    I1988
    0.4572919366584193    0.6666666666666667    0.9166666666666666    I1989
    0.7906252699917526    0.0000000000000000    0.2500000000000000    I1990
    0.7906252699917526    0.0000000000000000    0.5833333333333334    I1991
    0.7906252699917526    0.0000000000000000    0.9166666666666666    I1992
    0.7906252699917526    0.3333333333333334    0.2500000000000000    I1993
    0.7906252699917526    0.3333333333333334    0.5833333333333334    I1994
    0.7906252699917526    0.3333333333333334    0.9166666666666666    I1995
    0.7906252699917526    0.6666666666666667    0.2500000000000000    I1996
    0.7906252699917526    0.6666666666666667    0.5833333333333334    I1997
    0.7906252699917526    0.6666666666666667    0.9166666666666666    I1998
    0.1239586033250859    0.1666666666666667    0.0833333333333334    I1999
    0.1239586033250859    0.1666666666666667    0.4166666666666667    I2000
    0.1239586033250859    0.1666666666666667    0.7500000000000000    I2001
    0.1239586033250859    0.5000000000000000    0.0833333333333334    I2002
    0.1239586033250859    0.5000000000000000    0.4166666666666667    I2003
    0.1239586033250859    0.5000000000000000    0.7500000000000000    I2004
    0.1239586033250859    0.8333333333333334    0.0833333333333334    I2005
    0.1239586033250859    0.8333333333333334    0.4166666666666667    I2006
    0.1239586033250859    0.8333333333333334    0.7500000000000000    I2007
    0.4572919366584193    0.1666666666666667    0.0833333333333334    I2008
    0.4572919366584193    0.1666666666666667    0.4166666666666667    I2009
    0.4572919366584193    0.1666666666666667    0.7500000000000000    I2010
    0.4572919366584193    0.5000000000000000    0.0833333333333334    I2011
    0.4572919366584193    0.5000000000000000    0.4166666666666667    I2012
    0.4572919366584193    0.5000000000000000    0.7500000000000000    I2013
    0.4572919366584193    0.8333333333333334    0.0833333333333334    I2014
    0.4572919366584193    0.8333333333333334    0.4166666666666667    I2015
    0.4572919366584193    0.8333333333333334    0.7500000000000000    I2016
    0.7906252699917526    0.1666666666666667    0.0833333333333334    I2017
    0.7906252699917526    0.1666666666666667    0.4166666666666667    I2018
    0.7906252699917526    0.1666666666666667    0.7500000000000000    I2019
    0.7906252699917526    0.5000000000000000    0.0833333333333334    I2020
    0.7906252699917526    0.5000000000000000    0.4166666666666667    I2021
    0.7906252699917526    0.5000000000000000    0.7500000000000000    I2022
    0.7906252699917526    0.8333333333333334    0.0833333333333334    I2023
    0.7906252699917526    0.8333333333333334    0.4166666666666667    I2024
    0.7906252699917526    0.8333333333333334    0.7500000000000000    I2025
    0.1239586033250859    0.1666666666666667    0.2500000000000000    I2026
    0.1239586033250859    0.1666666666666667    0.5833333333333334    I2027
    0.1239586033250859    0.1666666666666667    0.9166666666666666    I2028
    0.1239586033250859    0.5000000000000000    0.2500000000000000    I2029
    0.1239586033250859    0.5000000000000000    0.5833333333333334    I2030
    0.1239586033250859    0.5000000000000000    0.9166666666666666    I2031
    0.1239586033250859    0.8333333333333334    0.2500000000000000    I2032
    0.1239586033250859    0.8333333333333334    0.5833333333333334    I2033
    0.1239586033250859    0.8333333333333334    0.9166666666666666    I2034
    0.4572919366584193    0.1666666666666667    0.2500000000000000    I2035
    0.4572919366584193    0.1666666666666667    0.5833333333333334    I2036
    0.4572919366584193    0.1666666666666667    0.9166666666666666    I2037
    0.4572919366584193    0.5000000000000000    0.2500000000000000    I2038
    0.4572919366584193    0.5000000000000000    0.5833333333333334    I2039
    0.4572919366584193    0.5000000000000000    0.9166666666666666    I2040
    0.4572919366584193    0.8333333333333334    0.2500000000000000    I2041
    0.4572919366584193    0.8333333333333334    0.5833333333333334    I2042
    0.4572919366584193    0.8333333333333334    0.9166666666666666    I2043
    0.7906252699917526    0.1666666666666667    0.2500000000000000    I2044
    0.7906252699917526    0.1666666666666667    0.5833333333333334    I2045
    0.7906252699917526    0.1666666666666667    0.9166666666666666    I2046
    0.7906252699917526    0.5000000000000000    0.2500000000000000    I2047
    0.7906252699917526    0.5000000000000000    0.5833333333333334    I2048
    0.7906252699917526    0.5000000000000000    0.9166666666666666    I2049
    0.7906252699917526    0.8333333333333334    0.2500000000000000    I2050
    0.7906252699917526    0.8333333333333334    0.5833333333333334    I2051
    0.7906252699917526    0.8333333333333334    0.9166666666666666    I2052
    0.2906252699917526    0.0000000000000000    0.0833333333333334    I2053
    0.2906252699917526    0.0000000000000000    0.4166666666666667    I2054
    0.2906252699917526    0.0000000000000000    0.7500000000000000    I2055
    0.2906252699917526    0.3333333333333334    0.0833333333333334    I2056
    0.2906252699917526    0.3333333333333334    0.4166666666666667    I2057
    0.2906252699917526    0.3333333333333334    0.7500000000000000    I2058
    0.2906252699917526    0.6666666666666667    0.0833333333333334    I2059
    0.2906252699917526    0.6666666666666667    0.4166666666666667    I2060
    0.2906252699917526    0.6666666666666667    0.7500000000000000    I2061
    0.6239586033250859    0.0000000000000000    0.0833333333333334    I2062
    0.6239586033250859    0.0000000000000000    0.4166666666666667    I2063
    0.6239586033250859    0.0000000000000000    0.7500000000000000    I2064
    0.6239586033250859    0.3333333333333334    0.0833333333333334    I2065
    0.6239586033250859    0.3333333333333334    0.4166666666666667    I2066
    0.6239586033250859    0.3333333333333334    0.7500000000000000    I2067
    0.6239586033250859    0.6666666666666667    0.0833333333333334    I2068
    0.6239586033250859    0.6666666666666667    0.4166666666666667    I2069
    0.6239586033250859    0.6666666666666667    0.7500000000000000    I2070
    0.9572919366584193    0.0000000000000000    0.0833333333333334    I2071
    0.9572919366584193    0.0000000000000000    0.4166666666666667    I2072
    0.9572919366584193    0.0000000000000000    0.7500000000000000    I2073
    0.9572919366584193    0.3333333333333334    0.0833333333333334    I2074
    0.9572919366584193    0.3333333333333334    0.4166666666666667    I2075
    0.9572919366584193    0.3333333333333334    0.7500000000000000    I2076
    0.9572919366584193    0.6666666666666667    0.0833333333333334    I2077
    0.9572919366584193    0.6666666666666667    0.4166666666666667    I2078
    0.9572919366584193    0.6666666666666667    0.7500000000000000    I2079
    0.2906252699917526    0.0000000000000000    0.2500000000000000    I2080
    0.2906252699917526    0.0000000000000000    0.5833333333333334    I2081
    0.2906252699917526    0.0000000000000000    0.9166666666666666    I2082
    0.2906252699917526    0.3333333333333334    0.2500000000000000    I2083
    0.2906252699917526    0.3333333333333334    0.5833333333333334    I2084
    0.2906252699917526    0.3333333333333334    0.9166666666666666    I2085
    0.2906252699917526    0.6666666666666667    0.2500000000000000    I2086
    0.2906252699917526    0.6666666666666667    0.5833333333333334    I2087
    0.2906252699917526    0.6666666666666667    0.9166666666666666    I2088
    0.6239586033250859    0.0000000000000000    0.2500000000000000    I2089
    0.6239586033250859    0.0000000000000000    0.5833333333333334    I2090
    0.6239586033250859    0.0000000000000000    0.9166666666666666    I2091
    0.6239586033250859    0.3333333333333334    0.2500000000000000    I2092
    0.6239586033250859    0.3333333333333334    0.5833333333333334    I2093
    0.6239586033250859    0.3333333333333334    0.9166666666666666    I2094
    0.6239586033250859    0.6666666666666667    0.2500000000000000    I2095
    0.6239586033250859    0.6666666666666667    0.5833333333333334    I2096
    0.6239586033250859    0.6666666666666667    0.9166666666666666    I2097
    0.9572919366584193    0.0000000000000000    0.2500000000000000    I2098
    0.9572919366584193    0.0000000000000000    0.5833333333333334    I2099
    0.9572919366584193    0.0000000000000000    0.9166666666666666    I2100
    0.9572919366584193    0.3333333333333334    0.2500000000000000    I2101
    0.9572919366584193    0.3333333333333334    0.5833333333333334    I2102
    0.9572919366584193    0.3333333333333334    0.9166666666666666    I2103
    0.9572919366584193    0.6666666666666667    0.2500000000000000    I2104
    0.9572919366584193    0.6666666666666667    0.5833333333333334    I2105
    0.9572919366584193    0.6666666666666667    0.9166666666666666    I2106
    0.2906252699917526    0.1666666666666667    0.0833333333333334    I2107
    0.2906252699917526    0.1666666666666667    0.4166666666666667    I2108
    0.2906252699917526    0.1666666666666667    0.7500000000000000    I2109
    0.2906252699917526    0.5000000000000000    0.0833333333333334    I2110
    0.2906252699917526    0.5000000000000000    0.4166666666666667    I2111
    0.2906252699917526    0.5000000000000000    0.7500000000000000    I2112
    0.2906252699917526    0.8333333333333334    0.0833333333333334    I2113
    0.2906252699917526    0.8333333333333334    0.4166666666666667    I2114
    0.2906252699917526    0.8333333333333334    0.7500000000000000    I2115
    0.6239586033250859    0.1666666666666667    0.0833333333333334    I2116
    0.6239586033250859    0.1666666666666667    0.4166666666666667    I2117
    0.6239586033250859    0.1666666666666667    0.7500000000000000    I2118
    0.6239586033250859    0.5000000000000000    0.0833333333333334    I2119
    0.6239586033250859    0.5000000000000000    0.4166666666666667    I2120
    0.6239586033250859    0.5000000000000000    0.7500000000000000    I2121
    0.6239586033250859    0.8333333333333334    0.0833333333333334    I2122
    0.6239586033250859    0.8333333333333334    0.4166666666666667    I2123
    0.6239586033250859    0.8333333333333334    0.7500000000000000    I2124
    0.9572919366584193    0.1666666666666667    0.0833333333333334    I2125
    0.9572919366584193    0.1666666666666667    0.4166666666666667    I2126
    0.9572919366584193    0.1666666666666667    0.7500000000000000    I2127
    0.9572919366584193    0.5000000000000000    0.0833333333333334    I2128
    0.9572919366584193    0.5000000000000000    0.4166666666666667    I2129
    0.9572919366584193    0.5000000000000000    0.7500000000000000    I2130
    0.9572919366584193    0.8333333333333334    0.0833333333333334    I2131
    0.9572919366584193    0.8333333333333334    0.4166666666666667    I2132
    0.9572919366584193    0.8333333333333334    0.7500000000000000    I2133
    0.2906252699917526    0.1666666666666667    0.2500000000000000    I2134
    0.2906252699917526    0.1666666666666667    0.5833333333333334    I2135
    0.2906252699917526    0.1666666666666667    0.9166666666666666    I2136
    0.2906252699917526    0.5000000000000000    0.2500000000000000    I2137
    0.2906252699917526    0.5000000000000000    0.5833333333333334    I2138
    0.2906252699917526    0.5000000000000000    0.9166666666666666    I2139
    0.2906252699917526    0.8333333333333334    0.2500000000000000    I2140
    0.2906252699917526    0.8333333333333334    0.5833333333333334    I2141
    0.2906252699917526    0.8333333333333334    0.9166666666666666    I2142
    0.6239586033250859    0.1666666666666667    0.2500000000000000    I2143
    0.6239586033250859    0.1666666666666667    0.5833333333333334    I2144
    0.6239586033250859    0.1666666666666667    0.9166666666666666    I2145
    0.6239586033250859    0.5000000000000000    0.2500000000000000    I2146
    0.6239586033250859    0.5000000000000000    0.5833333333333334    I2147
    0.6239586033250859    0.5000000000000000    0.9166666666666666    I2148
    0.6239586033250859    0.8333333333333334    0.2500000000000000    I2149
    0.6239586033250859    0.8333333333333334    0.5833333333333334    I2150
    0.6239586033250859    0.8333333333333334    0.9166666666666666    I2151
    0.9572919366584193    0.1666666666666667    0.2500000000000000    I2152
    0.9572919366584193    0.1666666666666667    0.5833333333333334    I2153
    0.9572919366584193    0.1666666666666667    0.9166666666666666    I2154
    0.9572919366584193    0.5000000000000000    0.2500000000000000    I2155
    0.9572919366584193    0.5000000000000000    0.5833333333333334    I2156
    0.9572919366584193    0.5000000000000000    0.9166666666666666    I2157
    0.9572919366584193    0.8333333333333334    0.2500000000000000    I2158
    0.9572919366584193    0.8333333333333334    0.5833333333333334    I2159
    0.9572919366584193    0.8333333333333334    0.9166666666666666    I2160
    0.0000000000000000    0.0000000000000000    0.1260413966749141    I2161
    0.0000000000000000    0.0000000000000000    0.4593747300082475    I2162
    0.0000000000000000    0.0000000000000000    0.7927080633415808    I2163
    0.0000000000000000    0.3333333333333334    0.1260413966749141    I2164
    0.0000000000000000    0.3333333333333334    0.4593747300082475    I2165
    0.0000000000000000    0.3333333333333334    0.7927080633415808    I2166
    0.0000000000000000    0.6666666666666667    0.1260413966749141    I2167
    0.0000000000000000    0.6666666666666667    0.4593747300082475    I2168
    0.0000000000000000    0.6666666666666667    0.7927080633415808    I2169
    0.3333333333333334    0.0000000000000000    0.1260413966749141    I2170
    0.3333333333333334    0.0000000000000000    0.4593747300082475    I2171
    0.3333333333333334    0.0000000000000000    0.7927080633415808    I2172
    0.3333333333333334    0.3333333333333334    0.1260413966749141    I2173
    0.3333333333333334    0.3333333333333334    0.4593747300082475    I2174
    0.3333333333333334    0.3333333333333334    0.7927080633415808    I2175
    0.3333333333333334    0.6666666666666667    0.1260413966749141    I2176
    0.3333333333333334    0.6666666666666667    0.4593747300082475    I2177
    0.3333333333333334    0.6666666666666667    0.7927080633415808    I2178
    0.6666666666666667    0.0000000000000000    0.1260413966749141    I2179
    0.6666666666666667    0.0000000000000000    0.4593747300082475    I2180
    0.6666666666666667    0.0000000000000000    0.7927080633415808    I2181
    0.6666666666666667    0.3333333333333334    0.1260413966749141    I2182
    0.6666666666666667    0.3333333333333334    0.4593747300082475    I2183
    0.6666666666666667    0.3333333333333334    0.7927080633415808    I2184
    0.6666666666666667    0.6666666666666667    0.1260413966749141    I2185
    0.6666666666666667    0.6666666666666667    0.4593747300082475    I2186
    0.6666666666666667    0.6666666666666667    0.7927080633415808    I2187
    0.0000000000000000    0.0000000000000000    0.2927080633415808    I2188
    0.0000000000000000    0.0000000000000000    0.6260413966749141    I2189
    0.0000000000000000    0.0000000000000000    0.9593747300082475    I2190
    0.0000000000000000    0.3333333333333334    0.2927080633415808    I2191
    0.0000000000000000    0.3333333333333334    0.6260413966749141    I2192
    0.0000000000000000    0.3333333333333334    0.9593747300082475    I2193
    0.0000000000000000    0.6666666666666667    0.2927080633415808    I2194
    0.0000000000000000    0.6666666666666667    0.6260413966749141    I2195
    0.0000000000000000    0.6666666666666667    0.9593747300082475    I2196
    0.3333333333333334    0.0000000000000000    0.2927080633415808    I2197
    0.3333333333333334    0.0000000000000000    0.6260413966749141    I2198
    0.3333333333333334    0.0000000000000000    0.9593747300082475    I2199
    0.3333333333333334    0.3333333333333334    0.2927080633415808    I2200
    0.3333333333333334    0.3333333333333334    0.6260413966749141    I2201
    0.3333333333333334    0.3333333333333334    0.9593747300082475    I2202
    0.3333333333333334    0.6666666666666667    0.2927080633415808    I2203
    0.3333333333333334    0.6666666666666667    0.6260413966749141    I2204
    0.3333333333333334    0.6666666666666667    0.9593747300082475    I2205
    0.6666666666666667    0.0000000000000000    0.2927080633415808    I2206
    0.6666666666666667    0.0000000000000000    0.6260413966749141    I2207
    0.6666666666666667    0.0000000000000000    0.9593747300082475    I2208
    0.6666666666666667    0.3333333333333334    0.2927080633415808    I2209
    0.6666666666666667    0.3333333333333334    0.6260413966749141    I2210
    0.6666666666666667    0.3333333333333334    0.9593747300082475    I2211
    0.6666666666666667    0.6666666666666667    0.2927080633415808    I2212
    0.6666666666666667    0.6666666666666667    0.6260413966749141    I2213
    0.6666666666666667    0.6666666666666667    0.9593747300082475    I2214
    0.0000000000000000    0.1666666666666667    0.1260413966749141    I2215
    0.0000000000000000    0.1666666666666667    0.4593747300082475    I2216
    0.0000000000000000    0.1666666666666667    0.7927080633415808    I2217
    0.0000000000000000    0.5000000000000000    0.1260413966749141    I2218
    0.0000000000000000    0.5000000000000000    0.4593747300082475    I2219
    0.0000000000000000    0.5000000000000000    0.7927080633415808    I2220
    0.0000000000000000    0.8333333333333334    0.1260413966749141    I2221
    0.0000000000000000    0.8333333333333334    0.4593747300082475    I2222
    0.0000000000000000    0.8333333333333334    0.7927080633415808    I2223
    0.3333333333333334    0.1666666666666667    0.1260413966749141    I2224
    0.3333333333333334    0.1666666666666667    0.4593747300082475    I2225
    0.3333333333333334    0.1666666666666667    0.7927080633415808    I2226
    0.3333333333333334    0.5000000000000000    0.1260413966749141    I2227
    0.3333333333333334    0.5000000000000000    0.4593747300082475    I2228
    0.3333333333333334    0.5000000000000000    0.7927080633415808    I2229
    0.3333333333333334    0.8333333333333334    0.1260413966749141    I2230
    0.3333333333333334    0.8333333333333334    0.4593747300082475    I2231
    0.3333333333333334    0.8333333333333334    0.7927080633415808    I2232
    0.6666666666666667    0.1666666666666667    0.1260413966749141    I2233
    0.6666666666666667    0.1666666666666667    0.4593747300082475    I2234
    0.6666666666666667    0.1666666666666667    0.7927080633415808    I2235
    0.6666666666666667    0.5000000000000000    0.1260413966749141    I2236
    0.6666666666666667    0.5000000000000000    0.4593747300082475    I2237
    0.6666666666666667    0.5000000000000000    0.7927080633415808    I2238
    0.6666666666666667    0.8333333333333334    0.1260413966749141    I2239
    0.6666666666666667    0.8333333333333334    0.4593747300082475    I2240
    0.6666666666666667    0.8333333333333334    0.7927080633415808    I2241
    0.0000000000000000    0.1666666666666667    0.2927080633415808    I2242
    0.0000000000000000    0.1666666666666667    0.6260413966749141    I2243
    0.0000000000000000    0.1666666666666667    0.9593747300082475    I2244
    0.0000000000000000    0.5000000000000000    0.2927080633415808    I2245
    0.0000000000000000    0.5000000000000000    0.6260413966749141    I2246
    0.0000000000000000    0.5000000000000000    0.9593747300082475    I2247
    0.0000000000000000    0.8333333333333334    0.2927080633415808    I2248
    0.0000000000000000    0.8333333333333334    0.6260413966749141    I2249
    0.0000000000000000    0.8333333333333334    0.9593747300082475    I2250
    0.3333333333333334    0.1666666666666667    0.2927080633415808    I2251
    0.3333333333333334    0.1666666666666667    0.6260413966749141    I2252
    0.3333333333333334    0.1666666666666667    0.9593747300082475    I2253
    0.3333333333333334    0.5000000000000000    0.2927080633415808    I2254
    0.3333333333333334    0.5000000000000000    0.6260413966749141    I2255
    0.3333333333333334    0.5000000000000000    0.9593747300082475    I2256
    0.3333333333333334    0.8333333333333334    0.2927080633415808    I2257
    0.3333333333333334    0.8333333333333334    0.6260413966749141    I2258
    0.3333333333333334    0.8333333333333334    0.9593747300082475    I2259
    0.6666666666666667    0.1666666666666667    0.2927080633415808    I2260
    0.6666666666666667    0.1666666666666667    0.6260413966749141    I2261
    0.6666666666666667    0.1666666666666667    0.9593747300082475    I2262
    0.6666666666666667    0.5000000000000000    0.2927080633415808    I2263
    0.6666666666666667    0.5000000000000000    0.6260413966749141    I2264
    0.6666666666666667    0.5000000000000000    0.9593747300082475    I2265
    0.6666666666666667    0.8333333333333334    0.2927080633415808    I2266
    0.6666666666666667    0.8333333333333334    0.6260413966749141    I2267
    0.6666666666666667    0.8333333333333334    0.9593747300082475    I2268
    0.1666666666666667    0.0000000000000000    0.1260413966749141    I2269
    0.1666666666666667    0.0000000000000000    0.4593747300082475    I2270
    0.1666666666666667    0.0000000000000000    0.7927080633415808    I2271
    0.1666666666666667    0.3333333333333334    0.1260413966749141    I2272
    0.1666666666666667    0.3333333333333334    0.4593747300082475    I2273
    0.1666666666666667    0.3333333333333334    0.7927080633415808    I2274
    0.1666666666666667    0.6666666666666667    0.1260413966749141    I2275
    0.1666666666666667    0.6666666666666667    0.4593747300082475    I2276
    0.1666666666666667    0.6666666666666667    0.7927080633415808    I2277
    0.5000000000000000    0.0000000000000000    0.1260413966749141    I2278
    0.5000000000000000    0.0000000000000000    0.4593747300082475    I2279
    0.5000000000000000    0.0000000000000000    0.7927080633415808    I2280
    0.5000000000000000    0.3333333333333334    0.1260413966749141    I2281
    0.5000000000000000    0.3333333333333334    0.4593747300082475    I2282
    0.5000000000000000    0.3333333333333334    0.7927080633415808    I2283
    0.5000000000000000    0.6666666666666667    0.1260413966749141    I2284
    0.5000000000000000    0.6666666666666667    0.4593747300082475    I2285
    0.5000000000000000    0.6666666666666667    0.7927080633415808    I2286
    0.8333333333333334    0.0000000000000000    0.1260413966749141    I2287
    0.8333333333333334    0.0000000000000000    0.4593747300082475    I2288
    0.8333333333333334    0.0000000000000000    0.7927080633415808    I2289
    0.8333333333333334    0.3333333333333334    0.1260413966749141    I2290
    0.8333333333333334    0.3333333333333334    0.4593747300082475    I2291
    0.8333333333333334    0.3333333333333334    0.7927080633415808    I2292
    0.8333333333333334    0.6666666666666667    0.1260413966749141    I2293
    0.8333333333333334    0.6666666666666667    0.4593747300082475    I2294
    0.8333333333333334    0.6666666666666667    0.7927080633415808    I2295
    0.1666666666666667    0.0000000000000000    0.2927080633415808    I2296
    0.1666666666666667    0.0000000000000000    0.6260413966749141    I2297
    0.1666666666666667    0.0000000000000000    0.9593747300082475    I2298
    0.1666666666666667    0.3333333333333334    0.2927080633415808    I2299
    0.1666666666666667    0.3333333333333334    0.6260413966749141    I2300
    0.1666666666666667    0.3333333333333334    0.9593747300082475    I2301
    0.1666666666666667    0.6666666666666667    0.2927080633415808    I2302
    0.1666666666666667    0.6666666666666667    0.6260413966749141    I2303
    0.1666666666666667    0.6666666666666667    0.9593747300082475    I2304
    0.5000000000000000    0.0000000000000000    0.2927080633415808    I2305
    0.5000000000000000    0.0000000000000000    0.6260413966749141    I2306
    0.5000000000000000    0.0000000000000000    0.9593747300082475    I2307
    0.5000000000000000    0.3333333333333334    0.2927080633415808    I2308
    0.5000000000000000    0.3333333333333334    0.6260413966749141    I2309
    0.5000000000000000    0.3333333333333334    0.9593747300082475    I2310
    0.5000000000000000    0.6666666666666667    0.2927080633415808    I2311
    0.5000000000000000    0.6666666666666667    0.6260413966749141    I2312
    0.5000000000000000    0.6666666666666667    0.9593747300082475    I2313
    0.8333333333333334    0.0000000000000000    0.2927080633415808    I2314
    0.8333333333333334    0.0000000000000000    0.6260413966749141    I2315
    0.8333333333333334    0.0000000000000000    0.9593747300082475    I2316
    0.8333333333333334    0.3333333333333334    0.2927080633415808    I2317
    0.8333333333333334    0.3333333333333334    0.6260413966749141    I2318
    0.8333333333333334    0.3333333333333334    0.9593747300082475    I2319
    0.8333333333333334    0.6666666666666667    0.2927080633415808    I2320
    0.8333333333333334    0.6666666666666667    0.6260413966749141    I2321
    0.8333333333333334    0.6666666666666667    0.9593747300082475    I2322
    0.1666666666666667    0.1666666666666667    0.1260413966749141    I2323
    0.1666666666666667    0.1666666666666667    0.4593747300082475    I2324
    0.1666666666666667    0.1666666666666667    0.7927080633415808    I2325
    0.1666666666666667    0.5000000000000000    0.1260413966749141    I2326
    0.1666666666666667    0.5000000000000000    0.4593747300082475    I2327
    0.1666666666666667    0.5000000000000000    0.7927080633415808    I2328
    0.1666666666666667    0.8333333333333334    0.1260413966749141    I2329
    0.1666666666666667    0.8333333333333334    0.4593747300082475    I2330
    0.1666666666666667    0.8333333333333334    0.7927080633415808    I2331
    0.5000000000000000    0.1666666666666667    0.1260413966749141    I2332
    0.5000000000000000    0.1666666666666667    0.4593747300082475    I2333
    0.5000000000000000    0.1666666666666667    0.7927080633415808    I2334
    0.5000000000000000    0.5000000000000000    0.1260413966749141    I2335
    0.5000000000000000    0.5000000000000000    0.4593747300082475    I2336
    0.5000000000000000    0.5000000000000000    0.7927080633415808    I2337
    0.5000000000000000    0.8333333333333334    0.1260413966749141    I2338
    0.5000000000000000    0.8333333333333334    0.4593747300082475    I2339
    0.5000000000000000    0.8333333333333334    0.7927080633415808    I2340
    0.8333333333333334    0.1666666666666667    0.1260413966749141    I2341
    0.8333333333333334    0.1666666666666667    0.4593747300082475    I2342
    0.8333333333333334    0.1666666666666667    0.7927080633415808    I2343
    0.8333333333333334    0.5000000000000000    0.1260413966749141    I2344
    0.8333333333333334    0.5000000000000000    0.4593747300082475    I2345
    0.8333333333333334    0.5000000000000000    0.7927080633415808    I2346
    0.8333333333333334    0.8333333333333334    0.1260413966749141    I2347
    0.8333333333333334    0.8333333333333334    0.4593747300082475    I2348
    0.8333333333333334    0.8333333333333334    0.7927080633415808    I2349
    0.1666666666666667    0.1666666666666667    0.2927080633415808    I2350
    0.1666666666666667    0.1666666666666667    0.6260413966749141    I2351
    0.1666666666666667    0.1666666666666667    0.9593747300082475    I2352
    0.1666666666666667    0.5000000000000000    0.2927080633415808    I2353
    0.1666666666666667    0.5000000000000000    0.6260413966749141    I2354
    0.1666666666666667    0.5000000000000000    0.9593747300082475    I2355
    0.1666666666666667    0.8333333333333334    0.2927080633415808    I2356
    0.1666666666666667    0.8333333333333334    0.6260413966749141    I2357
    0.1666666666666667    0.8333333333333334    0.9593747300082475    I2358
    0.5000000000000000    0.1666666666666667    0.2927080633415808    I2359
    0.5000000000000000    0.1666666666666667    0.6260413966749141    I2360
    0.5000000000000000    0.1666666666666667    0.9593747300082475    I2361
    0.5000000000000000    0.5000000000000000    0.2927080633415808    I2362
    0.5000000000000000    0.5000000000000000    0.6260413966749141    I2363
    0.5000000000000000    0.5000000000000000    0.9593747300082475    I2364
    0.5000000000000000    0.8333333333333334    0.2927080633415808    I2365
    0.5000000000000000    0.8333333333333334    0.6260413966749141    I2366
    0.5000000000000000    0.8333333333333334    0.9593747300082475    I2367
    0.8333333333333334    0.1666666666666667    0.2927080633415808    I2368
    0.8333333333333334    0.1666666666666667    0.6260413966749141    I2369
    0.8333333333333334    0.1666666666666667    0.9593747300082475    I2370
    0.8333333333333334    0.5000000000000000    0.2927080633415808    I2371
    0.8333333333333334    0.5000000000000000    0.6260413966749141    I2372
    0.8333333333333334    0.5000000000000000    0.9593747300082475    I2373
    0.8333333333333334    0.8333333333333334    0.2927080633415808    I2374
    0.8333333333333334    0.8333333333333334    0.6260413966749141    I2375
    0.8333333333333334    0.8333333333333334    0.9593747300082475    I2376
    0.0000000000000000    0.0000000000000000    0.0406252699917526    I2377
    0.0000000000000000    0.0000000000000000    0.3739586033250859    I2378
    0.0000000000000000    0.0000000000000000    0.7072919366584193    I2379
    0.0000000000000000    0.3333333333333334    0.0406252699917526    I2380
    0.0000000000000000    0.3333333333333334    0.3739586033250859    I2381
    0.0000000000000000    0.3333333333333334    0.7072919366584193    I2382
    0.0000000000000000    0.6666666666666667    0.0406252699917526    I2383
    0.0000000000000000    0.6666666666666667    0.3739586033250859    I2384
    0.0000000000000000    0.6666666666666667    0.7072919366584193    I2385
    0.3333333333333334    0.0000000000000000    0.0406252699917526    I2386
    0.3333333333333334    0.0000000000000000    0.3739586033250859    I2387
    0.3333333333333334    0.0000000000000000    0.7072919366584193    I2388
    0.3333333333333334    0.3333333333333334    0.0406252699917526    I2389
    0.3333333333333334    0.3333333333333334    0.3739586033250859    I2390
    0.3333333333333334    0.3333333333333334    0.7072919366584193    I2391
    0.3333333333333334    0.6666666666666667    0.0406252699917526    I2392
    0.3333333333333334    0.6666666666666667    0.3739586033250859    I2393
    0.3333333333333334    0.6666666666666667    0.7072919366584193    I2394
    0.6666666666666667    0.0000000000000000    0.0406252699917526    I2395
    0.6666666666666667    0.0000000000000000    0.3739586033250859    I2396
    0.6666666666666667    0.0000000000000000    0.7072919366584193    I2397
    0.6666666666666667    0.3333333333333334    0.0406252699917526    I2398
    0.6666666666666667    0.3333333333333334    0.3739586033250859    I2399
    0.6666666666666667    0.3333333333333334    0.7072919366584193    I2400
    0.6666666666666667    0.6666666666666667    0.0406252699917526    I2401
    0.6666666666666667    0.6666666666666667    0.3739586033250859    I2402
    0.6666666666666667    0.6666666666666667    0.7072919366584193    I2403
    0.0000000000000000    0.0000000000000000    0.2072919366584193    I2404
    0.0000000000000000    0.0000000000000000    0.5406252699917526    I2405
    0.0000000000000000    0.0000000000000000    0.8739586033250859    I2406
    0.0000000000000000    0.3333333333333334    0.2072919366584193    I2407
    0.0000000000000000    0.3333333333333334    0.5406252699917526    I2408
    0.0000000000000000    0.3333333333333334    0.8739586033250859    I2409
    0.0000000000000000    0.6666666666666667    0.2072919366584193    I2410
    0.0000000000000000    0.6666666666666667    0.5406252699917526    I2411
    0.0000000000000000    0.6666666666666667    0.8739586033250859    I2412
    0.3333333333333334    0.0000000000000000    0.2072919366584193    I2413
    0.3333333333333334    0.0000000000000000    0.5406252699917526    I2414
    0.3333333333333334    0.0000000000000000    0.8739586033250859    I2415
    0.3333333333333334    0.3333333333333334    0.2072919366584193    I2416
    0.3333333333333334    0.3333333333333334    0.5406252699917526    I2417
    0.3333333333333334    0.3333333333333334    0.8739586033250859    I2418
    0.3333333333333334    0.6666666666666667    0.2072919366584193    I2419
    0.3333333333333334    0.6666666666666667    0.5406252699917526    I2420
    0.3333333333333334    0.6666666666666667    0.8739586033250859    I2421
    0.6666666666666667    0.0000000000000000    0.2072919366584193    I2422
    0.6666666666666667    0.0000000000000000    0.5406252699917526    I2423
    0.6666666666666667    0.0000000000000000    0.8739586033250859    I2424
    0.6666666666666667    0.3333333333333334    0.2072919366584193    I2425
    0.6666666666666667    0.3333333333333334    0.5406252699917526    I2426
    0.6666666666666667    0.3333333333333334    0.8739586033250859    I2427
    0.6666666666666667    0.6666666666666667    0.2072919366584193    I2428
    0.6666666666666667    0.6666666666666667    0.5406252699917526    I2429
    0.6666666666666667    0.6666666666666667    0.8739586033250859    I2430
    0.0000000000000000    0.1666666666666667    0.0406252699917526    I2431
    0.0000000000000000    0.1666666666666667    0.3739586033250859    I2432
    0.0000000000000000    0.1666666666666667    0.7072919366584193    I2433
    0.0000000000000000    0.5000000000000000    0.0406252699917526    I2434
    0.0000000000000000    0.5000000000000000    0.3739586033250859    I2435
    0.0000000000000000    0.5000000000000000    0.7072919366584193    I2436
    0.0000000000000000    0.8333333333333334    0.0406252699917526    I2437
    0.0000000000000000    0.8333333333333334    0.3739586033250859    I2438
    0.0000000000000000    0.8333333333333334    0.7072919366584193    I2439
    0.3333333333333334    0.1666666666666667    0.0406252699917526    I2440
    0.3333333333333334    0.1666666666666667    0.3739586033250859    I2441
    0.3333333333333334    0.1666666666666667    0.7072919366584193    I2442
    0.3333333333333334    0.5000000000000000    0.0406252699917526    I2443
    0.3333333333333334    0.5000000000000000    0.3739586033250859    I2444
    0.3333333333333334    0.5000000000000000    0.7072919366584193    I2445
    0.3333333333333334    0.8333333333333334    0.0406252699917526    I2446
    0.3333333333333334    0.8333333333333334    0.3739586033250859    I2447
    0.3333333333333334    0.8333333333333334    0.7072919366584193    I2448
    0.6666666666666667    0.1666666666666667    0.0406252699917526    I2449
    0.6666666666666667    0.1666666666666667    0.3739586033250859    I2450
    0.6666666666666667    0.1666666666666667    0.7072919366584193    I2451
    0.6666666666666667    0.5000000000000000    0.0406252699917526    I2452
    0.6666666666666667    0.5000000000000000    0.3739586033250859    I2453
    0.6666666666666667    0.5000000000000000    0.7072919366584193    I2454
    0.6666666666666667    0.8333333333333334    0.0406252699917526    I2455
    0.6666666666666667    0.8333333333333334    0.3739586033250859    I2456
    0.6666666666666667    0.8333333333333334    0.7072919366584193    I2457
    0.0000000000000000    0.1666666666666667    0.2072919366584193    I2458
    0.0000000000000000    0.1666666666666667    0.5406252699917526    I2459
    0.0000000000000000    0.1666666666666667    0.8739586033250859    I2460
    0.0000000000000000    0.5000000000000000    0.2072919366584193    I2461
    0.0000000000000000    0.5000000000000000    0.5406252699917526    I2462
    0.0000000000000000    0.5000000000000000    0.8739586033250859    I2463
    0.0000000000000000    0.8333333333333334    0.2072919366584193    I2464
    0.0000000000000000    0.8333333333333334    0.5406252699917526    I2465
    0.0000000000000000    0.8333333333333334    0.8739586033250859    I2466
    0.3333333333333334    0.1666666666666667    0.2072919366584193    I2467
    0.3333333333333334    0.1666666666666667    0.5406252699917526    I2468
    0.3333333333333334    0.1666666666666667    0.8739586033250859    I2469
    0.3333333333333334    0.5000000000000000    0.2072919366584193    I2470
    0.3333333333333334    0.5000000000000000    0.5406252699917526    I2471
    0.3333333333333334    0.5000000000000000    0.8739586033250859    I2472
    0.3333333333333334    0.8333333333333334    0.2072919366584193    I2473
    0.3333333333333334    0.8333333333333334    0.5406252699917526    I2474
    0.3333333333333334    0.8333333333333334    0.8739586033250859    I2475
    0.6666666666666667    0.1666666666666667    0.2072919366584193    I2476
    0.6666666666666667    0.1666666666666667    0.5406252699917526    I2477
    0.6666666666666667    0.1666666666666667    0.8739586033250859    I2478
    0.6666666666666667    0.5000000000000000    0.2072919366584193    I2479
    0.6666666666666667    0.5000000000000000    0.5406252699917526    I2480
    0.6666666666666667    0.5000000000000000    0.8739586033250859    I2481
    0.6666666666666667    0.8333333333333334    0.2072919366584193    I2482
    0.6666666666666667    0.8333333333333334    0.5406252699917526    I2483
    0.6666666666666667    0.8333333333333334    0.8739586033250859    I2484
    0.1666666666666667    0.0000000000000000    0.0406252699917526    I2485
    0.1666666666666667    0.0000000000000000    0.3739586033250859    I2486
    0.1666666666666667    0.0000000000000000    0.7072919366584193    I2487
    0.1666666666666667    0.3333333333333334    0.0406252699917526    I2488
    0.1666666666666667    0.3333333333333334    0.3739586033250859    I2489
    0.1666666666666667    0.3333333333333334    0.7072919366584193    I2490
    0.1666666666666667    0.6666666666666667    0.0406252699917526    I2491
    0.1666666666666667    0.6666666666666667    0.3739586033250859    I2492
    0.1666666666666667    0.6666666666666667    0.7072919366584193    I2493
    0.5000000000000000    0.0000000000000000    0.0406252699917526    I2494
    0.5000000000000000    0.0000000000000000    0.3739586033250859    I2495
    0.5000000000000000    0.0000000000000000    0.7072919366584193    I2496
    0.5000000000000000    0.3333333333333334    0.0406252699917526    I2497
    0.5000000000000000    0.3333333333333334    0.3739586033250859    I2498
    0.5000000000000000    0.3333333333333334    0.7072919366584193    I2499
    0.5000000000000000    0.6666666666666667    0.0406252699917526    I2500
    0.5000000000000000    0.6666666666666667    0.3739586033250859    I2501
    0.5000000000000000    0.6666666666666667    0.7072919366584193    I2502
    0.8333333333333334    0.0000000000000000    0.0406252699917526    I2503
    0.8333333333333334    0.0000000000000000    0.3739586033250859    I2504
    0.8333333333333334    0.0000000000000000    0.7072919366584193    I2505
    0.8333333333333334    0.3333333333333334    0.0406252699917526    I2506
    0.8333333333333334    0.3333333333333334    0.3739586033250859    I2507
    0.8333333333333334    0.3333333333333334    0.7072919366584193    I2508
    0.8333333333333334    0.6666666666666667    0.0406252699917526    I2509
    0.8333333333333334    0.6666666666666667    0.3739586033250859    I2510
    0.8333333333333334    0.6666666666666667    0.7072919366584193    I2511
    0.1666666666666667    0.0000000000000000    0.2072919366584193    I2512
    0.1666666666666667    0.0000000000000000    0.5406252699917526    I2513
    0.1666666666666667    0.0000000000000000    0.8739586033250859    I2514
    0.1666666666666667    0.3333333333333334    0.2072919366584193    I2515
    0.1666666666666667    0.3333333333333334    0.5406252699917526    I2516
    0.1666666666666667    0.3333333333333334    0.8739586033250859    I2517
    0.1666666666666667    0.6666666666666667    0.2072919366584193    I2518
    0.1666666666666667    0.6666666666666667    0.5406252699917526    I2519
    0.1666666666666667    0.6666666666666667    0.8739586033250859    I2520
    0.5000000000000000    0.0000000000000000    0.2072919366584193    I2521
    0.5000000000000000    0.0000000000000000    0.5406252699917526    I2522
    0.5000000000000000    0.0000000000000000    0.8739586033250859    I2523
    0.5000000000000000    0.3333333333333334    0.2072919366584193    I2524
    0.5000000000000000    0.3333333333333334    0.5406252699917526    I2525
    0.5000000000000000    0.3333333333333334    0.8739586033250859    I2526
    0.5000000000000000    0.6666666666666667    0.2072919366584193    I2527
    0.5000000000000000    0.6666666666666667    0.5406252699917526    I2528
    0.5000000000000000    0.6666666666666667    0.8739586033250859    I2529
    0.8333333333333334    0.0000000000000000    0.2072919366584193    I2530
    0.8333333333333334    0.0000000000000000    0.5406252699917526    I2531
    0.8333333333333334    0.0000000000000000    0.8739586033250859    I2532
    0.8333333333333334    0.3333333333333334    0.2072919366584193    I2533
    0.8333333333333334    0.3333333333333334    0.5406252699917526    I2534
    0.8333333333333334    0.3333333333333334    0.8739586033250859    I2535
    0.8333333333333334    0.6666666666666667    0.2072919366584193    I2536
    0.8333333333333334    0.6666666666666667    0.5406252699917526    I2537
    0.8333333333333334    0.6666666666666667    0.8739586033250859    I2538
    0.1666666666666667    0.1666666666666667    0.0406252699917526    I2539
    0.1666666666666667    0.1666666666666667    0.3739586033250859    I2540
    0.1666666666666667    0.1666666666666667    0.7072919366584193    I2541
    0.1666666666666667    0.5000000000000000    0.0406252699917526    I2542
    0.1666666666666667    0.5000000000000000    0.3739586033250859    I2543
    0.1666666666666667    0.5000000000000000    0.7072919366584193    I2544
    0.1666666666666667    0.8333333333333334    0.0406252699917526    I2545
    0.1666666666666667    0.8333333333333334    0.3739586033250859    I2546
    0.1666666666666667    0.8333333333333334    0.7072919366584193    I2547
    0.5000000000000000    0.1666666666666667    0.0406252699917526    I2548
    0.5000000000000000    0.1666666666666667    0.3739586033250859    I2549
    0.5000000000000000    0.1666666666666667    0.7072919366584193    I2550
    0.5000000000000000    0.5000000000000000    0.0406252699917526    I2551
    0.5000000000000000    0.5000000000000000    0.3739586033250859    I2552
    0.5000000000000000    0.5000000000000000    0.7072919366584193    I2553
    0.5000000000000000    0.8333333333333334    0.0406252699917526    I2554
    0.5000000000000000    0.8333333333333334    0.3739586033250859    I2555
    0.5000000000000000    0.8333333333333334    0.7072919366584193    I2556
    0.8333333333333334    0.1666666666666667    0.0406252699917526    I2557
    0.8333333333333334    0.1666666666666667    0.3739586033250859    I2558
    0.8333333333333334    0.1666666666666667    0.7072919366584193    I2559
    0.8333333333333334    0.5000000000000000    0.0406252699917526    I2560
    0.8333333333333334    0.5000000000000000    0.3739586033250859    I2561
    0.8333333333333334    0.5000000000000000    0.7072919366584193    I2562
    0.8333333333333334    0.8333333333333334    0.0406252699917526    I2563
    0.8333333333333334    0.8333333333333334    0.3739586033250859    I2564
    0.8333333333333334    0.8333333333333334    0.7072919366584193    I2565
    0.1666666666666667    0.1666666666666667    0.2072919366584193    I2566
    0.1666666666666667    0.1666666666666667    0.5406252699917526    I2567
    0.1666666666666667    0.1666666666666667    0.8739586033250859    I2568
    0.1666666666666667    0.5000000000000000    0.2072919366584193    I2569
    0.1666666666666667    0.5000000000000000    0.5406252699917526    I2570
    0.1666666666666667    0.5000000000000000    0.8739586033250859    I2571
    0.1666666666666667    0.8333333333333334    0.2072919366584193    I2572
    0.1666666666666667    0.8333333333333334    0.5406252699917526    I2573
    0.1666666666666667    0.8333333333333334    0.8739586033250859    I2574
    0.5000000000000000    0.1666666666666667    0.2072919366584193    I2575
    0.5000000000000000    0.1666666666666667    0.5406252699917526    I2576
    0.5000000000000000    0.1666666666666667    0.8739586033250859    I2577
    0.5000000000000000    0.5000000000000000    0.2072919366584193    I2578
    0.5000000000000000    0.5000000000000000    0.5406252699917526    I2579
    0.5000000000000000    0.5000000000000000    0.8739586033250859    I2580
    0.5000000000000000    0.8333333333333334    0.2072919366584193    I2581
    0.5000000000000000    0.8333333333333334    0.5406252699917526    I2582
    0.5000000000000000    0.8333333333333334    0.8739586033250859    I2583
    0.8333333333333334    0.1666666666666667    0.2072919366584193    I2584
    0.8333333333333334    0.1666666666666667    0.5406252699917526    I2585
    0.8333333333333334    0.1666666666666667    0.8739586033250859    I2586
    0.8333333333333334    0.5000000000000000    0.2072919366584193    I2587
    0.8333333333333334    0.5000000000000000    0.5406252699917526    I2588
    0.8333333333333334    0.5000000000000000    0.8739586033250859    I2589
    0.8333333333333334    0.8333333333333334    0.2072919366584193    I2590
    0.8333333333333334    0.8333333333333334    0.5406252699917526    I2591
    0.8333333333333334    0.8333333333333334    0.8739586033250859    I2592
    0.0427080633415808    0.0833333333333334    0.0000000000000000    I2593
    0.0427080633415808    0.0833333333333334    0.3333333333333334    I2594
    0.0427080633415808    0.0833333333333334    0.6666666666666667    I2595
    0.0427080633415808    0.4166666666666667    0.0000000000000000    I2596
    0.0427080633415808    0.4166666666666667    0.3333333333333334    I2597
    0.0427080633415808    0.4166666666666667    0.6666666666666667    I2598
    0.0427080633415808    0.7500000000000000    0.0000000000000000    I2599
    0.0427080633415808    0.7500000000000000    0.3333333333333334    I2600
    0.0427080633415808    0.7500000000000000    0.6666666666666667    I2601
    0.3760413966749141    0.0833333333333334    0.0000000000000000    I2602
    0.3760413966749141    0.0833333333333334    0.3333333333333334    I2603
    0.3760413966749141    0.0833333333333334    0.6666666666666667    I2604
    0.3760413966749141    0.4166666666666667    0.0000000000000000    I2605
    0.3760413966749141    0.4166666666666667    0.3333333333333334    I2606
    0.3760413966749141    0.4166666666666667    0.6666666666666667    I2607
    0.3760413966749141    0.7500000000000000    0.0000000000000000    I2608
    0.3760413966749141    0.7500000000000000    0.3333333333333334    I2609
    0.3760413966749141    0.7500000000000000    0.6666666666666667    I2610
    0.7093747300082474    0.0833333333333334    0.0000000000000000    I2611
    0.7093747300082474    0.0833333333333334    0.3333333333333334    I2612
    0.7093747300082474    0.0833333333333334    0.6666666666666667    I2613
    0.7093747300082474    0.4166666666666667    0.0000000000000000    I2614
    0.7093747300082474    0.4166666666666667    0.3333333333333334    I2615
    0.7093747300082474    0.4166666666666667    0.6666666666666667    I2616
    0.7093747300082474    0.7500000000000000    0.0000000000000000    I2617
    0.7093747300082474    0.7500000000000000    0.3333333333333334    I2618
    0.7093747300082474    0.7500000000000000    0.6666666666666667    I2619
    0.0427080633415808    0.0833333333333334    0.1666666666666667    I2620
    0.0427080633415808    0.0833333333333334    0.5000000000000000    I2621
    0.0427080633415808    0.0833333333333334    0.8333333333333334    I2622
    0.0427080633415808    0.4166666666666667    0.1666666666666667    I2623
    0.0427080633415808    0.4166666666666667    0.5000000000000000    I2624
    0.0427080633415808    0.4166666666666667    0.8333333333333334    I2625
    0.0427080633415808    0.7500000000000000    0.1666666666666667    I2626
    0.0427080633415808    0.7500000000000000    0.5000000000000000    I2627
    0.0427080633415808    0.7500000000000000    0.8333333333333334    I2628
    0.3760413966749141    0.0833333333333334    0.1666666666666667    I2629
    0.3760413966749141    0.0833333333333334    0.5000000000000000    I2630
    0.3760413966749141    0.0833333333333334    0.8333333333333334    I2631
    0.3760413966749141    0.4166666666666667    0.1666666666666667    I2632
    0.3760413966749141    0.4166666666666667    0.5000000000000000    I2633
    0.3760413966749141    0.4166666666666667    0.8333333333333334    I2634
    0.3760413966749141    0.7500000000000000    0.1666666666666667    I2635
    0.3760413966749141    0.7500000000000000    0.5000000000000000    I2636
    0.3760413966749141    0.7500000000000000    0.8333333333333334    I2637
    0.7093747300082474    0.0833333333333334    0.1666666666666667    I2638
    0.7093747300082474    0.0833333333333334    0.5000000000000000    I2639
    0.7093747300082474    0.0833333333333334    0.8333333333333334    I2640
    0.7093747300082474    0.4166666666666667    0.1666666666666667    I2641
    0.7093747300082474    0.4166666666666667    0.5000000000000000    I2642
    0.7093747300082474    0.4166666666666667    0.8333333333333334    I2643
    0.7093747300082474    0.7500000000000000    0.1666666666666667    I2644
    0.7093747300082474    0.7500000000000000    0.5000000000000000    I2645
    0.7093747300082474    0.7500000000000000    0.8333333333333334    I2646
    0.0427080633415808    0.2500000000000000    0.0000000000000000    I2647
    0.0427080633415808    0.2500000000000000    0.3333333333333334    I2648
    0.0427080633415808    0.2500000000000000    0.6666666666666667    I2649
    0.0427080633415808    0.5833333333333334    0.0000000000000000    I2650
    0.0427080633415808    0.5833333333333334    0.3333333333333334    I2651
    0.0427080633415808    0.5833333333333334    0.6666666666666667    I2652
    0.0427080633415808    0.9166666666666666    0.0000000000000000    I2653
    0.0427080633415808    0.9166666666666666    0.3333333333333334    I2654
    0.0427080633415808    0.9166666666666666    0.6666666666666667    I2655
    0.3760413966749141    0.2500000000000000    0.0000000000000000    I2656
    0.3760413966749141    0.2500000000000000    0.3333333333333334    I2657
    0.3760413966749141    0.2500000000000000    0.6666666666666667    I2658
    0.3760413966749141    0.5833333333333334    0.0000000000000000    I2659
    0.3760413966749141    0.5833333333333334    0.3333333333333334    I2660
    0.3760413966749141    0.5833333333333334    0.6666666666666667    I2661
    0.3760413966749141    0.9166666666666666    0.0000000000000000    I2662
    0.3760413966749141    0.9166666666666666    0.3333333333333334    I2663
    0.3760413966749141    0.9166666666666666    0.6666666666666667    I2664
    0.7093747300082474    0.2500000000000000    0.0000000000000000    I2665
    0.7093747300082474    0.2500000000000000    0.3333333333333334    I2666
    0.7093747300082474    0.2500000000000000    0.6666666666666667    I2667
    0.7093747300082474    0.5833333333333334    0.0000000000000000    I2668
    0.7093747300082474    0.5833333333333334    0.3333333333333334    I2669
    0.7093747300082474    0.5833333333333334    0.6666666666666667    I2670
    0.7093747300082474    0.9166666666666666    0.0000000000000000    I2671
    0.7093747300082474    0.9166666666666666    0.3333333333333334    I2672
    0.7093747300082474    0.9166666666666666    0.6666666666666667    I2673
    0.0427080633415808    0.2500000000000000    0.1666666666666667    I2674
    0.0427080633415808    0.2500000000000000    0.5000000000000000    I2675
    0.0427080633415808    0.2500000000000000    0.8333333333333334    I2676
    0.0427080633415808    0.5833333333333334    0.1666666666666667    I2677
    0.0427080633415808    0.5833333333333334    0.5000000000000000    I2678
    0.0427080633415808    0.5833333333333334    0.8333333333333334    I2679
    0.0427080633415808    0.9166666666666666    0.1666666666666667    I2680
    0.0427080633415808    0.9166666666666666    0.5000000000000000    I2681
    0.0427080633415808    0.9166666666666666    0.8333333333333334    I2682
    0.3760413966749141    0.2500000000000000    0.1666666666666667    I2683
    0.3760413966749141    0.2500000000000000    0.5000000000000000    I2684
    0.3760413966749141    0.2500000000000000    0.8333333333333334    I2685
    0.3760413966749141    0.5833333333333334    0.1666666666666667    I2686
    0.3760413966749141    0.5833333333333334    0.5000000000000000    I2687
    0.3760413966749141    0.5833333333333334    0.8333333333333334    I2688
    0.3760413966749141    0.9166666666666666    0.1666666666666667    I2689
    0.3760413966749141    0.9166666666666666    0.5000000000000000    I2690
    0.3760413966749141    0.9166666666666666    0.8333333333333334    I2691
    0.7093747300082474    0.2500000000000000    0.1666666666666667    I2692
    0.7093747300082474    0.2500000000000000    0.5000000000000000    I2693
    0.7093747300082474    0.2500000000000000    0.8333333333333334    I2694
    0.7093747300082474    0.5833333333333334    0.1666666666666667    I2695
    0.7093747300082474    0.5833333333333334    0.5000000000000000    I2696
    0.7093747300082474    0.5833333333333334    0.8333333333333334    I2697
    0.7093747300082474    0.9166666666666666    0.1666666666666667    I2698
    0.7093747300082474    0.9166666666666666    0.5000000000000000    I2699
    0.7093747300082474    0.9166666666666666    0.8333333333333334    I2700
    0.2093747300082475    0.0833333333333334    0.0000000000000000    I2701
    0.2093747300082475    0.0833333333333334    0.3333333333333334    I2702
    0.2093747300082475    0.0833333333333334    0.6666666666666667    I2703
    0.2093747300082475    0.4166666666666667    0.0000000000000000    I2704
    0.2093747300082475    0.4166666666666667    0.3333333333333334    I2705
    0.2093747300082475    0.4166666666666667    0.6666666666666667    I2706
    0.2093747300082475    0.7500000000000000    0.0000000000000000    I2707
    0.2093747300082475    0.7500000000000000    0.3333333333333334    I2708
    0.2093747300082475    0.7500000000000000    0.6666666666666667    I2709
    0.5427080633415808    0.0833333333333334    0.0000000000000000    I2710
    0.5427080633415808    0.0833333333333334    0.3333333333333334    I2711
    0.5427080633415808    0.0833333333333334    0.6666666666666667    I2712
    0.5427080633415808    0.4166666666666667    0.0000000000000000    I2713
    0.5427080633415808    0.4166666666666667    0.3333333333333334    I2714
    0.5427080633415808    0.4166666666666667    0.6666666666666667    I2715
    0.5427080633415808    0.7500000000000000    0.0000000000000000    I2716
    0.5427080633415808    0.7500000000000000    0.3333333333333334    I2717
    0.5427080633415808    0.7500000000000000    0.6666666666666667    I2718
    0.8760413966749141    0.0833333333333334    0.0000000000000000    I2719
    0.8760413966749141    0.0833333333333334    0.3333333333333334    I2720
    0.8760413966749141    0.0833333333333334    0.6666666666666667    I2721
    0.8760413966749141    0.4166666666666667    0.0000000000000000    I2722
    0.8760413966749141    0.4166666666666667    0.3333333333333334    I2723
    0.8760413966749141    0.4166666666666667    0.6666666666666667    I2724
    0.8760413966749141    0.7500000000000000    0.0000000000000000    I2725
    0.8760413966749141    0.7500000000000000    0.3333333333333334    I2726
    0.8760413966749141    0.7500000000000000    0.6666666666666667    I2727
    0.2093747300082475    0.0833333333333334    0.1666666666666667    I2728
    0.2093747300082475    0.0833333333333334    0.5000000000000000    I2729
    0.2093747300082475    0.0833333333333334    0.8333333333333334    I2730
    0.2093747300082475    0.4166666666666667    0.1666666666666667    I2731
    0.2093747300082475    0.4166666666666667    0.5000000000000000    I2732
    0.2093747300082475    0.4166666666666667    0.8333333333333334    I2733
    0.2093747300082475    0.7500000000000000    0.1666666666666667    I2734
    0.2093747300082475    0.7500000000000000    0.5000000000000000    I2735
    0.2093747300082475    0.7500000000000000    0.8333333333333334    I2736
    0.5427080633415808    0.0833333333333334    0.1666666666666667    I2737
    0.5427080633415808    0.0833333333333334    0.5000000000000000    I2738
    0.5427080633415808    0.0833333333333334    0.8333333333333334    I2739
    0.5427080633415808    0.4166666666666667    0.1666666666666667    I2740
    0.5427080633415808    0.4166666666666667    0.5000000000000000    I2741
    0.5427080633415808    0.4166666666666667    0.8333333333333334    I2742
    0.5427080633415808    0.7500000000000000    0.1666666666666667    I2743
    0.5427080633415808    0.7500000000000000    0.5000000000000000    I2744
    0.5427080633415808    0.7500000000000000    0.8333333333333334    I2745
    0.8760413966749141    0.0833333333333334    0.1666666666666667    I2746
    0.8760413966749141    0.0833333333333334    0.5000000000000000    I2747
    0.8760413966749141    0.0833333333333334    0.8333333333333334    I2748
    0.8760413966749141    0.4166666666666667    0.1666666666666667    I2749
    0.8760413966749141    0.4166666666666667    0.5000000000000000    I2750
    0.8760413966749141    0.4166666666666667    0.8333333333333334    I2751
    0.8760413966749141    0.7500000000000000    0.1666666666666667    I2752
    0.8760413966749141    0.7500000000000000    0.5000000000000000    I2753
    0.8760413966749141    0.7500000000000000    0.8333333333333334    I2754
    0.2093747300082475    0.2500000000000000    0.0000000000000000    I2755
    0.2093747300082475    0.2500000000000000    0.3333333333333334    I2756
    0.2093747300082475    0.2500000000000000    0.6666666666666667    I2757
    0.2093747300082475    0.5833333333333334    0.0000000000000000    I2758
    0.2093747300082475    0.5833333333333334    0.3333333333333334    I2759
    0.2093747300082475    0.5833333333333334    0.6666666666666667    I2760
    0.2093747300082475    0.9166666666666666    0.0000000000000000    I2761
    0.2093747300082475    0.9166666666666666    0.3333333333333334    I2762
    0.2093747300082475    0.9166666666666666    0.6666666666666667    I2763
    0.5427080633415808    0.2500000000000000    0.0000000000000000    I2764
    0.5427080633415808    0.2500000000000000    0.3333333333333334    I2765
    0.5427080633415808    0.2500000000000000    0.6666666666666667    I2766
    0.5427080633415808    0.5833333333333334    0.0000000000000000    I2767
    0.5427080633415808    0.5833333333333334    0.3333333333333334    I2768
    0.5427080633415808    0.5833333333333334    0.6666666666666667    I2769
    0.5427080633415808    0.9166666666666666    0.0000000000000000    I2770
    0.5427080633415808    0.9166666666666666    0.3333333333333334    I2771
    0.5427080633415808    0.9166666666666666    0.6666666666666667    I2772
    0.8760413966749141    0.2500000000000000    0.0000000000000000    I2773
    0.8760413966749141    0.2500000000000000    0.3333333333333334    I2774
    0.8760413966749141    0.2500000000000000    0.6666666666666667    I2775
    0.8760413966749141    0.5833333333333334    0.0000000000000000    I2776
    0.8760413966749141    0.5833333333333334    0.3333333333333334    I2777
    0.8760413966749141    0.5833333333333334    0.6666666666666667    I2778
    0.8760413966749141    0.9166666666666666    0.0000000000000000    I2779
    0.8760413966749141    0.9166666666666666    0.3333333333333334    I2780
    0.8760413966749141    0.9166666666666666    0.6666666666666667    I2781
    0.2093747300082475    0.2500000000000000    0.1666666666666667    I2782
    0.2093747300082475    0.2500000000000000    0.5000000000000000    I2783
    0.2093747300082475    0.2500000000000000    0.8333333333333334    I2784
    0.2093747300082475    0.5833333333333334    0.1666666666666667    I2785
    0.2093747300082475    0.5833333333333334    0.5000000000000000    I2786
    0.2093747300082475    0.5833333333333334    0.8333333333333334    I2787
    0.2093747300082475    0.9166666666666666    0.1666666666666667    I2788
    0.2093747300082475    0.9166666666666666    0.5000000000000000    I2789
    0.2093747300082475    0.9166666666666666    0.8333333333333334    I2790
    0.5427080633415808    0.2500000000000000    0.1666666666666667    I2791
    0.5427080633415808    0.2500000000000000    0.5000000000000000    I2792
    0.5427080633415808    0.2500000000000000    0.8333333333333334    I2793
    0.5427080633415808    0.5833333333333334    0.1666666666666667    I2794
    0.5427080633415808    0.5833333333333334    0.5000000000000000    I2795
    0.5427080633415808    0.5833333333333334    0.8333333333333334    I2796
    0.5427080633415808    0.9166666666666666    0.1666666666666667    I2797
    0.5427080633415808    0.9166666666666666    0.5000000000000000    I2798
    0.5427080633415808    0.9166666666666666    0.8333333333333334    I2799
    0.8760413966749141    0.2500000000000000    0.1666666666666667    I2800
    0.8760413966749141    0.2500000000000000    0.5000000000000000    I2801
    0.8760413966749141    0.2500000000000000    0.8333333333333334    I2802
    0.8760413966749141    0.5833333333333334    0.1666666666666667    I2803
    0.8760413966749141    0.5833333333333334    0.5000000000000000    I2804
    0.8760413966749141    0.5833333333333334    0.8333333333333334    I2805
    0.8760413966749141    0.9166666666666666    0.1666666666666667    I2806
    0.8760413966749141    0.9166666666666666    0.5000000000000000    I2807
    0.8760413966749141    0.9166666666666666    0.8333333333333334    I2808
    0.0833333333333334    0.1260413966749141    0.0833333333333334    I2809
    0.0833333333333334    0.1260413966749141    0.4166666666666667    I2810
    0.0833333333333334    0.1260413966749141    0.7500000000000000    I2811
    0.0833333333333334    0.4593747300082475    0.0833333333333334    I2812
    0.0833333333333334    0.4593747300082475    0.4166666666666667    I2813
    0.0833333333333334    0.4593747300082475    0.7500000000000000    I2814
    0.0833333333333334    0.7927080633415808    0.0833333333333334    I2815
    0.0833333333333334    0.7927080633415808    0.4166666666666667    I2816
    0.0833333333333334    0.7927080633415808    0.7500000000000000    I2817
    0.4166666666666667    0.1260413966749141    0.0833333333333334    I2818
    0.4166666666666667    0.1260413966749141    0.4166666666666667    I2819
    0.4166666666666667    0.1260413966749141    0.7500000000000000    I2820
    0.4166666666666667    0.4593747300082475    0.0833333333333334    I2821
    0.4166666666666667    0.4593747300082475    0.4166666666666667    I2822
    0.4166666666666667    0.4593747300082475    0.7500000000000000    I2823
    0.4166666666666667    0.7927080633415808    0.0833333333333334    I2824
    0.4166666666666667    0.7927080633415808    0.4166666666666667    I2825
    0.4166666666666667    0.7927080633415808    0.7500000000000000    I2826
    0.7500000000000000    0.1260413966749141    0.0833333333333334    I2827
    0.7500000000000000    0.1260413966749141    0.4166666666666667    I2828
    0.7500000000000000    0.1260413966749141    0.7500000000000000    I2829
    0.7500000000000000    0.4593747300082475    0.0833333333333334    I2830
    0.7500000000000000    0.4593747300082475    0.4166666666666667    I2831
    0.7500000000000000    0.4593747300082475    0.7500000000000000    I2832
    0.7500000000000000    0.7927080633415808    0.0833333333333334    I2833
    0.7500000000000000    0.7927080633415808    0.4166666666666667    I2834
    0.7500000000000000    0.7927080633415808    0.7500000000000000    I2835
    0.0833333333333334    0.1260413966749141    0.2500000000000000    I2836
    0.0833333333333334    0.1260413966749141    0.5833333333333334    I2837
    0.0833333333333334    0.1260413966749141    0.9166666666666666    I2838
    0.0833333333333334    0.4593747300082475    0.2500000000000000    I2839
    0.0833333333333334    0.4593747300082475    0.5833333333333334    I2840
    0.0833333333333334    0.4593747300082475    0.9166666666666666    I2841
    0.0833333333333334    0.7927080633415808    0.2500000000000000    I2842
    0.0833333333333334    0.7927080633415808    0.5833333333333334    I2843
    0.0833333333333334    0.7927080633415808    0.9166666666666666    I2844
    0.4166666666666667    0.1260413966749141    0.2500000000000000    I2845
    0.4166666666666667    0.1260413966749141    0.5833333333333334    I2846
    0.4166666666666667    0.1260413966749141    0.9166666666666666    I2847
    0.4166666666666667    0.4593747300082475    0.2500000000000000    I2848
    0.4166666666666667    0.4593747300082475    0.5833333333333334    I2849
    0.4166666666666667    0.4593747300082475    0.9166666666666666    I2850
    0.4166666666666667    0.7927080633415808    0.2500000000000000    I2851
    0.4166666666666667    0.7927080633415808    0.5833333333333334    I2852
    0.4166666666666667    0.7927080633415808    0.9166666666666666    I2853
    0.7500000000000000    0.1260413966749141    0.2500000000000000    I2854
    0.7500000000000000    0.1260413966749141    0.5833333333333334    I2855
    0.7500000000000000    0.1260413966749141    0.9166666666666666    I2856
    0.7500000000000000    0.4593747300082475    0.2500000000000000    I2857
    0.7500000000000000    0.4593747300082475    0.5833333333333334    I2858
    0.7500000000000000    0.4593747300082475    0.9166666666666666    I2859
    0.7500000000000000    0.7927080633415808    0.2500000000000000    I2860
    0.7500000000000000    0.7927080633415808    0.5833333333333334    I2861
    0.7500000000000000    0.7927080633415808    0.9166666666666666    I2862
    0.0833333333333334    0.2927080633415808    0.0833333333333334    I2863
    0.0833333333333334    0.2927080633415808    0.4166666666666667    I2864
    0.0833333333333334    0.2927080633415808    0.7500000000000000    I2865
    0.0833333333333334    0.6260413966749141    0.0833333333333334    I2866
    0.0833333333333334    0.6260413966749141    0.4166666666666667    I2867
    0.0833333333333334    0.6260413966749141    0.7500000000000000    I2868
    0.0833333333333334    0.9593747300082475    0.0833333333333334    I2869
    0.0833333333333334    0.9593747300082475    0.4166666666666667    I2870
    0.0833333333333334    0.9593747300082475    0.7500000000000000    I2871
    0.4166666666666667    0.2927080633415808    0.0833333333333334    I2872
    0.4166666666666667    0.2927080633415808    0.4166666666666667    I2873
    0.4166666666666667    0.2927080633415808    0.7500000000000000    I2874
    0.4166666666666667    0.6260413966749141    0.0833333333333334    I2875
    0.4166666666666667    0.6260413966749141    0.4166666666666667    I2876
    0.4166666666666667    0.6260413966749141    0.7500000000000000    I2877
    0.4166666666666667    0.9593747300082475    0.0833333333333334    I2878
    0.4166666666666667    0.9593747300082475    0.4166666666666667    I2879
    0.4166666666666667    0.9593747300082475    0.7500000000000000    I2880
    0.7500000000000000    0.2927080633415808    0.0833333333333334    I2881
    0.7500000000000000    0.2927080633415808    0.4166666666666667    I2882
    0.7500000000000000    0.2927080633415808    0.7500000000000000    I2883
    0.7500000000000000    0.6260413966749141    0.0833333333333334    I2884
    0.7500000000000000    0.6260413966749141    0.4166666666666667    I2885
    0.7500000000000000    0.6260413966749141    0.7500000000000000    I2886
    0.7500000000000000    0.9593747300082475    0.0833333333333334    I2887
    0.7500000000000000    0.9593747300082475    0.4166666666666667    I2888
    0.7500000000000000    0.9593747300082475    0.7500000000000000    I2889
    0.0833333333333334    0.2927080633415808    0.2500000000000000    I2890
    0.0833333333333334    0.2927080633415808    0.5833333333333334    I2891
    0.0833333333333334    0.2927080633415808    0.9166666666666666    I2892
    0.0833333333333334    0.6260413966749141    0.2500000000000000    I2893
    0.0833333333333334    0.6260413966749141    0.5833333333333334    I2894
    0.0833333333333334    0.6260413966749141    0.9166666666666666    I2895
    0.0833333333333334    0.9593747300082475    0.2500000000000000    I2896
    0.0833333333333334    0.9593747300082475    0.5833333333333334    I2897
    0.0833333333333334    0.9593747300082475    0.9166666666666666    I2898
    0.4166666666666667    0.2927080633415808    0.2500000000000000    I2899
    0.4166666666666667    0.2927080633415808    0.5833333333333334    I2900
    0.4166666666666667    0.2927080633415808    0.9166666666666666    I2901
    0.4166666666666667    0.6260413966749141    0.2500000000000000    I2902
    0.4166666666666667    0.6260413966749141    0.5833333333333334    I2903
    0.4166666666666667    0.6260413966749141    0.9166666666666666    I2904
    0.4166666666666667    0.9593747300082475    0.2500000000000000    I2905
    0.4166666666666667    0.9593747300082475    0.5833333333333334    I2906
    0.4166666666666667    0.9593747300082475    0.9166666666666666    I2907
    0.7500000000000000    0.2927080633415808    0.2500000000000000    I2908
    0.7500000000000000    0.2927080633415808    0.5833333333333334    I2909
    0.7500000000000000    0.2927080633415808    0.9166666666666666    I2910
    0.7500000000000000    0.6260413966749141    0.2500000000000000    I2911
    0.7500000000000000    0.6260413966749141    0.5833333333333334    I2912
    0.7500000000000000    0.6260413966749141    0.9166666666666666    I2913
    0.7500000000000000    0.9593747300082475    0.2500000000000000    I2914
    0.7500000000000000    0.9593747300082475    0.5833333333333334    I2915
    0.7500000000000000    0.9593747300082475    0.9166666666666666    I2916
    0.2500000000000000    0.1260413966749141    0.0833333333333334    I2917
    0.2500000000000000    0.1260413966749141    0.4166666666666667    I2918
    0.2500000000000000    0.1260413966749141    0.7500000000000000    I2919
    0.2500000000000000    0.4593747300082475    0.0833333333333334    I2920
    0.2500000000000000    0.4593747300082475    0.4166666666666667    I2921
    0.2500000000000000    0.4593747300082475    0.7500000000000000    I2922
    0.2500000000000000    0.7927080633415808    0.0833333333333334    I2923
    0.2500000000000000    0.7927080633415808    0.4166666666666667    I2924
    0.2500000000000000    0.7927080633415808    0.7500000000000000    I2925
    0.5833333333333334    0.1260413966749141    0.0833333333333334    I2926
    0.5833333333333334    0.1260413966749141    0.4166666666666667    I2927
    0.5833333333333334    0.1260413966749141    0.7500000000000000    I2928
    0.5833333333333334    0.4593747300082475    0.0833333333333334    I2929
    0.5833333333333334    0.4593747300082475    0.4166666666666667    I2930
    0.5833333333333334    0.4593747300082475    0.7500000000000000    I2931
    0.5833333333333334    0.7927080633415808    0.0833333333333334    I2932
    0.5833333333333334    0.7927080633415808    0.4166666666666667    I2933
    0.5833333333333334    0.7927080633415808    0.7500000000000000    I2934
    0.9166666666666666    0.1260413966749141    0.0833333333333334    I2935
    0.9166666666666666    0.1260413966749141    0.4166666666666667    I2936
    0.9166666666666666    0.1260413966749141    0.7500000000000000    I2937
    0.9166666666666666    0.4593747300082475    0.0833333333333334    I2938
    0.9166666666666666    0.4593747300082475    0.4166666666666667    I2939
    0.9166666666666666    0.4593747300082475    0.7500000000000000    I2940
    0.9166666666666666    0.7927080633415808    0.0833333333333334    I2941
    0.9166666666666666    0.7927080633415808    0.4166666666666667    I2942
    0.9166666666666666    0.7927080633415808    0.7500000000000000    I2943
    0.2500000000000000    0.1260413966749141    0.2500000000000000    I2944
    0.2500000000000000    0.1260413966749141    0.5833333333333334    I2945
    0.2500000000000000    0.1260413966749141    0.9166666666666666    I2946
    0.2500000000000000    0.4593747300082475    0.2500000000000000    I2947
    0.2500000000000000    0.4593747300082475    0.5833333333333334    I2948
    0.2500000000000000    0.4593747300082475    0.9166666666666666    I2949
    0.2500000000000000    0.7927080633415808    0.2500000000000000    I2950
    0.2500000000000000    0.7927080633415808    0.5833333333333334    I2951
    0.2500000000000000    0.7927080633415808    0.9166666666666666    I2952
    0.5833333333333334    0.1260413966749141    0.2500000000000000    I2953
    0.5833333333333334    0.1260413966749141    0.5833333333333334    I2954
    0.5833333333333334    0.1260413966749141    0.9166666666666666    I2955
    0.5833333333333334    0.4593747300082475    0.2500000000000000    I2956
    0.5833333333333334    0.4593747300082475    0.5833333333333334    I2957
    0.5833333333333334    0.4593747300082475    0.9166666666666666    I2958
    0.5833333333333334    0.7927080633415808    0.2500000000000000    I2959
    0.5833333333333334    0.7927080633415808    0.5833333333333334    I2960
    0.5833333333333334    0.7927080633415808    0.9166666666666666    I2961
    0.9166666666666666    0.1260413966749141    0.2500000000000000    I2962
    0.9166666666666666    0.1260413966749141    0.5833333333333334    I2963
    0.9166666666666666    0.1260413966749141    0.9166666666666666    I2964
    0.9166666666666666    0.4593747300082475    0.2500000000000000    I2965
    0.9166666666666666    0.4593747300082475    0.5833333333333334    I2966
    0.9166666666666666    0.4593747300082475    0.9166666666666666    I2967
    0.9166666666666666    0.7927080633415808    0.2500000000000000    I2968
    0.9166666666666666    0.7927080633415808    0.5833333333333334    I2969
    0.9166666666666666    0.7927080633415808    0.9166666666666666    I2970
    0.2500000000000000    0.2927080633415808    0.0833333333333334    I2971
    0.2500000000000000    0.2927080633415808    0.4166666666666667    I2972
    0.2500000000000000    0.2927080633415808    0.7500000000000000    I2973
    0.2500000000000000    0.6260413966749141    0.0833333333333334    I2974
    0.2500000000000000    0.6260413966749141    0.4166666666666667    I2975
    0.2500000000000000    0.6260413966749141    0.7500000000000000    I2976
    0.2500000000000000    0.9593747300082475    0.0833333333333334    I2977
    0.2500000000000000    0.9593747300082475    0.4166666666666667    I2978
    0.2500000000000000    0.9593747300082475    0.7500000000000000    I2979
    0.5833333333333334    0.2927080633415808    0.0833333333333334    I2980
    0.5833333333333334    0.2927080633415808    0.4166666666666667    I2981
    0.5833333333333334    0.2927080633415808    0.7500000000000000    I2982
    0.5833333333333334    0.6260413966749141    0.0833333333333334    I2983
    0.5833333333333334    0.6260413966749141    0.4166666666666667    I2984
    0.5833333333333334    0.6260413966749141    0.7500000000000000    I2985
    0.5833333333333334    0.9593747300082475    0.0833333333333334    I2986
    0.5833333333333334    0.9593747300082475    0.4166666666666667    I2987
    0.5833333333333334    0.9593747300082475    0.7500000000000000    I2988
    0.9166666666666666    0.2927080633415808    0.0833333333333334    I2989
    0.9166666666666666    0.2927080633415808    0.4166666666666667    I2990
    0.9166666666666666    0.2927080633415808    0.7500000000000000    I2991
    0.9166666666666666    0.6260413966749141    0.0833333333333334    I2992
    0.9166666666666666    0.6260413966749141    0.4166666666666667    I2993
    0.9166666666666666    0.6260413966749141    0.7500000000000000    I2994
    0.9166666666666666    0.9593747300082475    0.0833333333333334    I2995
    0.9166666666666666    0.9593747300082475    0.4166666666666667    I2996
    0.9166666666666666    0.9593747300082475    0.7500000000000000    I2997
    0.2500000000000000    0.2927080633415808    0.2500000000000000    I2998
    0.2500000000000000    0.2927080633415808    0.5833333333333334    I2999
    0.2500000000000000    0.2927080633415808    0.9166666666666666    I3000
    0.2500000000000000    0.6260413966749141    0.2500000000000000    I3001
    0.2500000000000000    0.6260413966749141    0.5833333333333334    I3002
    0.2500000000000000    0.6260413966749141    0.9166666666666666    I3003
    0.2500000000000000    0.9593747300082475    0.2500000000000000    I3004
    0.2500000000000000    0.9593747300082475    0.5833333333333334    I3005
    0.2500000000000000    0.9593747300082475    0.9166666666666666    I3006
    0.5833333333333334    0.2927080633415808    0.2500000000000000    I3007
    0.5833333333333334    0.2927080633415808    0.5833333333333334    I3008
    0.5833333333333334    0.2927080633415808    0.9166666666666666    I3009
    0.5833333333333334    0.6260413966749141    0.2500000000000000    I3010
    0.5833333333333334    0.6260413966749141    0.5833333333333334    I3011
    0.5833333333333334    0.6260413966749141    0.9166666666666666    I3012
    0.5833333333333334    0.9593747300082475    0.2500000000000000    I3013
    0.5833333333333334    0.9593747300082475    0.5833333333333334    I3014
    0.5833333333333334    0.9593747300082475    0.9166666666666666    I3015
    0.9166666666666666    0.2927080633415808    0.2500000000000000    I3016
    0.9166666666666666    0.2927080633415808    0.5833333333333334    I3017
    0.9166666666666666    0.2927080633415808    0.9166666666666666    I3018
    0.9166666666666666    0.6260413966749141    0.2500000000000000    I3019
    0.9166666666666666    0.6260413966749141    0.5833333333333334    I3020
    0.9166666666666666    0.6260413966749141    0.9166666666666666    I3021
    0.9166666666666666    0.9593747300082475    0.2500000000000000    I3022
    0.9166666666666666    0.9593747300082475    0.5833333333333334    I3023
    0.9166666666666666    0.9593747300082475    0.9166666666666666    I3024
    0.0833333333333334    0.0406252699917526    0.0833333333333334    I3025
    0.0833333333333334    0.0406252699917526    0.4166666666666667    I3026
    0.0833333333333334    0.0406252699917526    0.7500000000000000    I3027
    0.0833333333333334    0.3739586033250859    0.0833333333333334    I3028
    0.0833333333333334    0.3739586033250859    0.4166666666666667    I3029
    0.0833333333333334    0.3739586033250859    0.7500000000000000    I3030
    0.0833333333333334    0.7072919366584193    0.0833333333333334    I3031
    0.0833333333333334    0.7072919366584193    0.4166666666666667    I3032
    0.0833333333333334    0.7072919366584193    0.7500000000000000    I3033
    0.4166666666666667    0.0406252699917526    0.0833333333333334    I3034
    0.4166666666666667    0.0406252699917526    0.4166666666666667    I3035
    0.4166666666666667    0.0406252699917526    0.7500000000000000    I3036
    0.4166666666666667    0.3739586033250859    0.0833333333333334    I3037
    0.4166666666666667    0.3739586033250859    0.4166666666666667    I3038
    0.4166666666666667    0.3739586033250859    0.7500000000000000    I3039
    0.4166666666666667    0.7072919366584193    0.0833333333333334    I3040
    0.4166666666666667    0.7072919366584193    0.4166666666666667    I3041
    0.4166666666666667    0.7072919366584193    0.7500000000000000    I3042
    0.7500000000000000    0.0406252699917526    0.0833333333333334    I3043
    0.7500000000000000    0.0406252699917526    0.4166666666666667    I3044
    0.7500000000000000    0.0406252699917526    0.7500000000000000    I3045
    0.7500000000000000    0.3739586033250859    0.0833333333333334    I3046
    0.7500000000000000    0.3739586033250859    0.4166666666666667    I3047
    0.7500000000000000    0.3739586033250859    0.7500000000000000    I3048
    0.7500000000000000    0.7072919366584193    0.0833333333333334    I3049
    0.7500000000000000    0.7072919366584193    0.4166666666666667    I3050
    0.7500000000000000    0.7072919366584193    0.7500000000000000    I3051
    0.0833333333333334    0.0406252699917526    0.2500000000000000    I3052
    0.0833333333333334    0.0406252699917526    0.5833333333333334    I3053
    0.0833333333333334    0.0406252699917526    0.9166666666666666    I3054
    0.0833333333333334    0.3739586033250859    0.2500000000000000    I3055
    0.0833333333333334    0.3739586033250859    0.5833333333333334    I3056
    0.0833333333333334    0.3739586033250859    0.9166666666666666    I3057
    0.0833333333333334    0.7072919366584193    0.2500000000000000    I3058
    0.0833333333333334    0.7072919366584193    0.5833333333333334    I3059
    0.0833333333333334    0.7072919366584193    0.9166666666666666    I3060
    0.4166666666666667    0.0406252699917526    0.2500000000000000    I3061
    0.4166666666666667    0.0406252699917526    0.5833333333333334    I3062
    0.4166666666666667    0.0406252699917526    0.9166666666666666    I3063
    0.4166666666666667    0.3739586033250859    0.2500000000000000    I3064
    0.4166666666666667    0.3739586033250859    0.5833333333333334    I3065
    0.4166666666666667    0.3739586033250859    0.9166666666666666    I3066
    0.4166666666666667    0.7072919366584193    0.2500000000000000    I3067
    0.4166666666666667    0.7072919366584193    0.5833333333333334    I3068
    0.4166666666666667    0.7072919366584193    0.9166666666666666    I3069
    0.7500000000000000    0.0406252699917526    0.2500000000000000    I3070
    0.7500000000000000    0.0406252699917526    0.5833333333333334    I3071
    0.7500000000000000    0.0406252699917526    0.9166666666666666    I3072
    0.7500000000000000    0.3739586033250859    0.2500000000000000    I3073
    0.7500000000000000    0.3739586033250859    0.5833333333333334    I3074
    0.7500000000000000    0.3739586033250859    0.9166666666666666    I3075
    0.7500000000000000    0.7072919366584193    0.2500000000000000    I3076
    0.7500000000000000    0.7072919366584193    0.5833333333333334    I3077
    0.7500000000000000    0.7072919366584193    0.9166666666666666    I3078
    0.0833333333333334    0.2072919366584193    0.0833333333333334    I3079
    0.0833333333333334    0.2072919366584193    0.4166666666666667    I3080
    0.0833333333333334    0.2072919366584193    0.7500000000000000    I3081
    0.0833333333333334    0.5406252699917526    0.0833333333333334    I3082
    0.0833333333333334    0.5406252699917526    0.4166666666666667    I3083
    0.0833333333333334    0.5406252699917526    0.7500000000000000    I3084
    0.0833333333333334    0.8739586033250859    0.0833333333333334    I3085
    0.0833333333333334    0.8739586033250859    0.4166666666666667    I3086
    0.0833333333333334    0.8739586033250859    0.7500000000000000    I3087
    0.4166666666666667    0.2072919366584193    0.0833333333333334    I3088
    0.4166666666666667    0.2072919366584193    0.4166666666666667    I3089
    0.4166666666666667    0.2072919366584193    0.7500000000000000    I3090
    0.4166666666666667    0.5406252699917526    0.0833333333333334    I3091
    0.4166666666666667    0.5406252699917526    0.4166666666666667    I3092
    0.4166666666666667    0.5406252699917526    0.7500000000000000    I3093
    0.4166666666666667    0.8739586033250859    0.0833333333333334    I3094
    0.4166666666666667    0.8739586033250859    0.4166666666666667    I3095
    0.4166666666666667    0.8739586033250859    0.7500000000000000    I3096
    0.7500000000000000    0.2072919366584193    0.0833333333333334    I3097
    0.7500000000000000    0.2072919366584193    0.4166666666666667    I3098
    0.7500000000000000    0.2072919366584193    0.7500000000000000    I3099
    0.7500000000000000    0.5406252699917526    0.0833333333333334    I3100
    0.7500000000000000    0.5406252699917526    0.4166666666666667    I3101
    0.7500000000000000    0.5406252699917526    0.7500000000000000    I3102
    0.7500000000000000    0.8739586033250859    0.0833333333333334    I3103
    0.7500000000000000    0.8739586033250859    0.4166666666666667    I3104
    0.7500000000000000    0.8739586033250859    0.7500000000000000    I3105
    0.0833333333333334    0.2072919366584193    0.2500000000000000    I3106
    0.0833333333333334    0.2072919366584193    0.5833333333333334    I3107
    0.0833333333333334    0.2072919366584193    0.9166666666666666    I3108
    0.0833333333333334    0.5406252699917526    0.2500000000000000    I3109
    0.0833333333333334    0.5406252699917526    0.5833333333333334    I3110
    0.0833333333333334    0.5406252699917526    0.9166666666666666    I3111
    0.0833333333333334    0.8739586033250859    0.2500000000000000    I3112
    0.0833333333333334    0.8739586033250859    0.5833333333333334    I3113
    0.0833333333333334    0.8739586033250859    0.9166666666666666    I3114
    0.4166666666666667    0.2072919366584193    0.2500000000000000    I3115
    0.4166666666666667    0.2072919366584193    0.5833333333333334    I3116
    0.4166666666666667    0.2072919366584193    0.9166666666666666    I3117
    0.4166666666666667    0.5406252699917526    0.2500000000000000    I3118
    0.4166666666666667    0.5406252699917526    0.5833333333333334    I3119
    0.4166666666666667    0.5406252699917526    0.9166666666666666    I3120
    0.4166666666666667    0.8739586033250859    0.2500000000000000    I3121
    0.4166666666666667    0.8739586033250859    0.5833333333333334    I3122
    0.4166666666666667    0.8739586033250859    0.9166666666666666    I3123
    0.7500000000000000    0.2072919366584193    0.2500000000000000    I3124
    0.7500000000000000    0.2072919366584193    0.5833333333333334    I3125
    0.7500000000000000    0.2072919366584193    0.9166666666666666    I3126
    0.7500000000000000    0.5406252699917526    0.2500000000000000    I3127
    0.7500000000000000    0.5406252699917526    0.5833333333333334    I3128
    0.7500000000000000    0.5406252699917526    0.9166666666666666    I3129
    0.7500000000000000    0.8739586033250859    0.2500000000000000    I3130
    0.7500000000000000    0.8739586033250859    0.5833333333333334    I3131
    0.7500000000000000    0.8739586033250859    0.9166666666666666    I3132
    0.2500000000000000    0.0406252699917526    0.0833333333333334    I3133
    0.2500000000000000    0.0406252699917526    0.4166666666666667    I3134
    0.2500000000000000    0.0406252699917526    0.7500000000000000    I3135
    0.2500000000000000    0.3739586033250859    0.0833333333333334    I3136
    0.2500000000000000    0.3739586033250859    0.4166666666666667    I3137
    0.2500000000000000    0.3739586033250859    0.7500000000000000    I3138
    0.2500000000000000    0.7072919366584193    0.0833333333333334    I3139
    0.2500000000000000    0.7072919366584193    0.4166666666666667    I3140
    0.2500000000000000    0.7072919366584193    0.7500000000000000    I3141
    0.5833333333333334    0.0406252699917526    0.0833333333333334    I3142
    0.5833333333333334    0.0406252699917526    0.4166666666666667    I3143
    0.5833333333333334    0.0406252699917526    0.7500000000000000    I3144
    0.5833333333333334    0.3739586033250859    0.0833333333333334    I3145
    0.5833333333333334    0.3739586033250859    0.4166666666666667    I3146
    0.5833333333333334    0.3739586033250859    0.7500000000000000    I3147
    0.5833333333333334    0.7072919366584193    0.0833333333333334    I3148
    0.5833333333333334    0.7072919366584193    0.4166666666666667    I3149
    0.5833333333333334    0.7072919366584193    0.7500000000000000    I3150
    0.9166666666666666    0.0406252699917526    0.0833333333333334    I3151
    0.9166666666666666    0.0406252699917526    0.4166666666666667    I3152
    0.9166666666666666    0.0406252699917526    0.7500000000000000    I3153
    0.9166666666666666    0.3739586033250859    0.0833333333333334    I3154
    0.9166666666666666    0.3739586033250859    0.4166666666666667    I3155
    0.9166666666666666    0.3739586033250859    0.7500000000000000    I3156
    0.9166666666666666    0.7072919366584193    0.0833333333333334    I3157
    0.9166666666666666    0.7072919366584193    0.4166666666666667    I3158
    0.9166666666666666    0.7072919366584193    0.7500000000000000    I3159
    0.2500000000000000    0.0406252699917526    0.2500000000000000    I3160
    0.2500000000000000    0.0406252699917526    0.5833333333333334    I3161
    0.2500000000000000    0.0406252699917526    0.9166666666666666    I3162
    0.2500000000000000    0.3739586033250859    0.2500000000000000    I3163
    0.2500000000000000    0.3739586033250859    0.5833333333333334    I3164
    0.2500000000000000    0.3739586033250859    0.9166666666666666    I3165
    0.2500000000000000    0.7072919366584193    0.2500000000000000    I3166
    0.2500000000000000    0.7072919366584193    0.5833333333333334    I3167
    0.2500000000000000    0.7072919366584193    0.9166666666666666    I3168
    0.5833333333333334    0.0406252699917526    0.2500000000000000    I3169
    0.5833333333333334    0.0406252699917526    0.5833333333333334    I3170
    0.5833333333333334    0.0406252699917526    0.9166666666666666    I3171
    0.5833333333333334    0.3739586033250859    0.2500000000000000    I3172
    0.5833333333333334    0.3739586033250859    0.5833333333333334    I3173
    0.5833333333333334    0.3739586033250859    0.9166666666666666    I3174
    0.5833333333333334    0.7072919366584193    0.2500000000000000    I3175
    0.5833333333333334    0.7072919366584193    0.5833333333333334    I3176
    0.5833333333333334    0.7072919366584193    0.9166666666666666    I3177
    0.9166666666666666    0.0406252699917526    0.2500000000000000    I3178
    0.9166666666666666    0.0406252699917526    0.5833333333333334    I3179
    0.9166666666666666    0.0406252699917526    0.9166666666666666    I3180
    0.9166666666666666    0.3739586033250859    0.2500000000000000    I3181
    0.9166666666666666    0.3739586033250859    0.5833333333333334    I3182
    0.9166666666666666    0.3739586033250859    0.9166666666666666    I3183
    0.9166666666666666    0.7072919366584193    0.2500000000000000    I3184
    0.9166666666666666    0.7072919366584193    0.5833333333333334    I3185
    0.9166666666666666    0.7072919366584193    0.9166666666666666    I3186
    0.2500000000000000    0.2072919366584193    0.0833333333333334    I3187
    0.2500000000000000    0.2072919366584193    0.4166666666666667    I3188
    0.2500000000000000    0.2072919366584193    0.7500000000000000    I3189
    0.2500000000000000    0.5406252699917526    0.0833333333333334    I3190
    0.2500000000000000    0.5406252699917526    0.4166666666666667    I3191
    0.2500000000000000    0.5406252699917526    0.7500000000000000    I3192
    0.2500000000000000    0.8739586033250859    0.0833333333333334    I3193
    0.2500000000000000    0.8739586033250859    0.4166666666666667    I3194
    0.2500000000000000    0.8739586033250859    0.7500000000000000    I3195
    0.5833333333333334    0.2072919366584193    0.0833333333333334    I3196
    0.5833333333333334    0.2072919366584193    0.4166666666666667    I3197
    0.5833333333333334    0.2072919366584193    0.7500000000000000    I3198
    0.5833333333333334    0.5406252699917526    0.0833333333333334    I3199
    0.5833333333333334    0.5406252699917526    0.4166666666666667    I3200
    0.5833333333333334    0.5406252699917526    0.7500000000000000    I3201
    0.5833333333333334    0.8739586033250859    0.0833333333333334    I3202
    0.5833333333333334    0.8739586033250859    0.4166666666666667    I3203
    0.5833333333333334    0.8739586033250859    0.7500000000000000    I3204
    0.9166666666666666    0.2072919366584193    0.0833333333333334    I3205
    0.9166666666666666    0.2072919366584193    0.4166666666666667    I3206
    0.9166666666666666    0.2072919366584193    0.7500000000000000    I3207
    0.9166666666666666    0.5406252699917526    0.0833333333333334    I3208
    0.9166666666666666    0.5406252699917526    0.4166666666666667    I3209
    0.9166666666666666    0.5406252699917526    0.7500000000000000    I3210
    0.9166666666666666    0.8739586033250859    0.0833333333333334    I3211
    0.9166666666666666    0.8739586033250859    0.4166666666666667    I3212
    0.9166666666666666    0.8739586033250859    0.7500000000000000    I3213
    0.2500000000000000    0.2072919366584193    0.2500000000000000    I3214
    0.2500000000000000    0.2072919366584193    0.5833333333333334    I3215
    0.2500000000000000    0.2072919366584193    0.9166666666666666    I3216
    0.2500000000000000    0.5406252699917526    0.2500000000000000    I3217
    0.2500000000000000    0.5406252699917526    0.5833333333333334    I3218
    0.2500000000000000    0.5406252699917526    0.9166666666666666    I3219
    0.2500000000000000    0.8739586033250859    0.2500000000000000    I3220
    0.2500000000000000    0.8739586033250859    0.5833333333333334    I3221
    0.2500000000000000    0.8739586033250859    0.9166666666666666    I3222
    0.5833333333333334    0.2072919366584193    0.2500000000000000    I3223
    0.5833333333333334    0.2072919366584193    0.5833333333333334    I3224
    0.5833333333333334    0.2072919366584193    0.9166666666666666    I3225
    0.5833333333333334    0.5406252699917526    0.2500000000000000    I3226
    0.5833333333333334    0.5406252699917526    0.5833333333333334    I3227
    0.5833333333333334    0.5406252699917526    0.9166666666666666    I3228
    0.5833333333333334    0.8739586033250859    0.2500000000000000    I3229
    0.5833333333333334    0.8739586033250859    0.5833333333333334    I3230
    0.5833333333333334    0.8739586033250859    0.9166666666666666    I3231
    0.9166666666666666    0.2072919366584193    0.2500000000000000    I3232
    0.9166666666666666    0.2072919366584193    0.5833333333333334    I3233
    0.9166666666666666    0.2072919366584193    0.9166666666666666    I3234
    0.9166666666666666    0.5406252699917526    0.2500000000000000    I3235
    0.9166666666666666    0.5406252699917526    0.5833333333333334    I3236
    0.9166666666666666    0.5406252699917526    0.9166666666666666    I3237
    0.9166666666666666    0.8739586033250859    0.2500000000000000    I3238
    0.9166666666666666    0.8739586033250859    0.5833333333333334    I3239
    0.9166666666666666    0.8739586033250859    0.9166666666666666    I3240
    0.0406252699917526    0.0833333333333334    0.0833333333333334    I3241
    0.0406252699917526    0.0833333333333334    0.4166666666666667    I3242
    0.0406252699917526    0.0833333333333334    0.7500000000000000    I3243
    0.0406252699917526    0.4166666666666667    0.0833333333333334    I3244
    0.0406252699917526    0.4166666666666667    0.4166666666666667    I3245
    0.0406252699917526    0.4166666666666667    0.7500000000000000    I3246
    0.0406252699917526    0.7500000000000000    0.0833333333333334    I3247
    0.0406252699917526    0.7500000000000000    0.4166666666666667    I3248
    0.0406252699917526    0.7500000000000000    0.7500000000000000    I3249
    0.3739586033250859    0.0833333333333334    0.0833333333333334    I3250
    0.3739586033250859    0.0833333333333334    0.4166666666666667    I3251
    0.3739586033250859    0.0833333333333334    0.7500000000000000    I3252
    0.3739586033250859    0.4166666666666667    0.0833333333333334    I3253
    0.3739586033250859    0.4166666666666667    0.4166666666666667    I3254
    0.3739586033250859    0.4166666666666667    0.7500000000000000    I3255
    0.3739586033250859    0.7500000000000000    0.0833333333333334    I3256
    0.3739586033250859    0.7500000000000000    0.4166666666666667    I3257
    0.3739586033250859    0.7500000000000000    0.7500000000000000    I3258
    0.7072919366584193    0.0833333333333334    0.0833333333333334    I3259
    0.7072919366584193    0.0833333333333334    0.4166666666666667    I3260
    0.7072919366584193    0.0833333333333334    0.7500000000000000    I3261
    0.7072919366584193    0.4166666666666667    0.0833333333333334    I3262
    0.7072919366584193    0.4166666666666667    0.4166666666666667    I3263
    0.7072919366584193    0.4166666666666667    0.7500000000000000    I3264
    0.7072919366584193    0.7500000000000000    0.0833333333333334    I3265
    0.7072919366584193    0.7500000000000000    0.4166666666666667    I3266
    0.7072919366584193    0.7500000000000000    0.7500000000000000    I3267
    0.0406252699917526    0.0833333333333334    0.2500000000000000    I3268
    0.0406252699917526    0.0833333333333334    0.5833333333333334    I3269
    0.0406252699917526    0.0833333333333334    0.9166666666666666    I3270
    0.0406252699917526    0.4166666666666667    0.2500000000000000    I3271
    0.0406252699917526    0.4166666666666667    0.5833333333333334    I3272
    0.0406252699917526    0.4166666666666667    0.9166666666666666    I3273
    0.0406252699917526    0.7500000000000000    0.2500000000000000    I3274
    0.0406252699917526    0.7500000000000000    0.5833333333333334    I3275
    0.0406252699917526    0.7500000000000000    0.9166666666666666    I3276
    0.3739586033250859    0.0833333333333334    0.2500000000000000    I3277
    0.3739586033250859    0.0833333333333334    0.5833333333333334    I3278
    0.3739586033250859    0.0833333333333334    0.9166666666666666    I3279
    0.3739586033250859    0.4166666666666667    0.2500000000000000    I3280
    0.3739586033250859    0.4166666666666667    0.5833333333333334    I3281
    0.3739586033250859    0.4166666666666667    0.9166666666666666    I3282
    0.3739586033250859    0.7500000000000000    0.2500000000000000    I3283
    0.3739586033250859    0.7500000000000000    0.5833333333333334    I3284
    0.3739586033250859    0.7500000000000000    0.9166666666666666    I3285
    0.7072919366584193    0.0833333333333334    0.2500000000000000    I3286
    0.7072919366584193    0.0833333333333334    0.5833333333333334    I3287
    0.7072919366584193    0.0833333333333334    0.9166666666666666    I3288
    0.7072919366584193    0.4166666666666667    0.2500000000000000    I3289
    0.7072919366584193    0.4166666666666667    0.5833333333333334    I3290
    0.7072919366584193    0.4166666666666667    0.9166666666666666    I3291
    0.7072919366584193    0.7500000000000000    0.2500000000000000    I3292
    0.7072919366584193    0.7500000000000000    0.5833333333333334    I3293
    0.7072919366584193    0.7500000000000000    0.9166666666666666    I3294
    0.0406252699917526    0.2500000000000000    0.0833333333333334    I3295
    0.0406252699917526    0.2500000000000000    0.4166666666666667    I3296
    0.0406252699917526    0.2500000000000000    0.7500000000000000    I3297
    0.0406252699917526    0.5833333333333334    0.0833333333333334    I3298
    0.0406252699917526    0.5833333333333334    0.4166666666666667    I3299
    0.0406252699917526    0.5833333333333334    0.7500000000000000    I3300
    0.0406252699917526    0.9166666666666666    0.0833333333333334    I3301
    0.0406252699917526    0.9166666666666666    0.4166666666666667    I3302
    0.0406252699917526    0.9166666666666666    0.7500000000000000    I3303
    0.3739586033250859    0.2500000000000000    0.0833333333333334    I3304
    0.3739586033250859    0.2500000000000000    0.4166666666666667    I3305
    0.3739586033250859    0.2500000000000000    0.7500000000000000    I3306
    0.3739586033250859    0.5833333333333334    0.0833333333333334    I3307
    0.3739586033250859    0.5833333333333334    0.4166666666666667    I3308
    0.3739586033250859    0.5833333333333334    0.7500000000000000    I3309
    0.3739586033250859    0.9166666666666666    0.0833333333333334    I3310
    0.3739586033250859    0.9166666666666666    0.4166666666666667    I3311
    0.3739586033250859    0.9166666666666666    0.7500000000000000    I3312
    0.7072919366584193    0.2500000000000000    0.0833333333333334    I3313
    0.7072919366584193    0.2500000000000000    0.4166666666666667    I3314
    0.7072919366584193    0.2500000000000000    0.7500000000000000    I3315
    0.7072919366584193    0.5833333333333334    0.0833333333333334    I3316
    0.7072919366584193    0.5833333333333334    0.4166666666666667    I3317
    0.7072919366584193    0.5833333333333334    0.7500000000000000    I3318
    0.7072919366584193    0.9166666666666666    0.0833333333333334    I3319
    0.7072919366584193    0.9166666666666666    0.4166666666666667    I3320
    0.7072919366584193    0.9166666666666666    0.7500000000000000    I3321
    0.0406252699917526    0.2500000000000000    0.2500000000000000    I3322
    0.0406252699917526    0.2500000000000000    0.5833333333333334    I3323
    0.0406252699917526    0.2500000000000000    0.9166666666666666    I3324
    0.0406252699917526    0.5833333333333334    0.2500000000000000    I3325
    0.0406252699917526    0.5833333333333334    0.5833333333333334    I3326
    0.0406252699917526    0.5833333333333334    0.9166666666666666    I3327
    0.0406252699917526    0.9166666666666666    0.2500000000000000    I3328
    0.0406252699917526    0.9166666666666666    0.5833333333333334    I3329
    0.0406252699917526    0.9166666666666666    0.9166666666666666    I3330
    0.3739586033250859    0.2500000000000000    0.2500000000000000    I3331
    0.3739586033250859    0.2500000000000000    0.5833333333333334    I3332
    0.3739586033250859    0.2500000000000000    0.9166666666666666    I3333
    0.3739586033250859    0.5833333333333334    0.2500000000000000    I3334
    0.3739586033250859    0.5833333333333334    0.5833333333333334    I3335
    0.3739586033250859    0.5833333333333334    0.9166666666666666    I3336
    0.3739586033250859    0.9166666666666666    0.2500000000000000    I3337
    0.3739586033250859    0.9166666666666666    0.5833333333333334    I3338
    0.3739586033250859    0.9166666666666666    0.9166666666666666    I3339
    0.7072919366584193    0.2500000000000000    0.2500000000000000    I3340
    0.7072919366584193    0.2500000000000000    0.5833333333333334    I3341
    0.7072919366584193    0.2500000000000000    0.9166666666666666    I3342
    0.7072919366584193    0.5833333333333334    0.2500000000000000    I3343
    0.7072919366584193    0.5833333333333334    0.5833333333333334    I3344
    0.7072919366584193    0.5833333333333334    0.9166666666666666    I3345
    0.7072919366584193    0.9166666666666666    0.2500000000000000    I3346
    0.7072919366584193    0.9166666666666666    0.5833333333333334    I3347
    0.7072919366584193    0.9166666666666666    0.9166666666666666    I3348
    0.2072919366584193    0.0833333333333334    0.0833333333333334    I3349
    0.2072919366584193    0.0833333333333334    0.4166666666666667    I3350
    0.2072919366584193    0.0833333333333334    0.7500000000000000    I3351
    0.2072919366584193    0.4166666666666667    0.0833333333333334    I3352
    0.2072919366584193    0.4166666666666667    0.4166666666666667    I3353
    0.2072919366584193    0.4166666666666667    0.7500000000000000    I3354
    0.2072919366584193    0.7500000000000000    0.0833333333333334    I3355
    0.2072919366584193    0.7500000000000000    0.4166666666666667    I3356
    0.2072919366584193    0.7500000000000000    0.7500000000000000    I3357
    0.5406252699917526    0.0833333333333334    0.0833333333333334    I3358
    0.5406252699917526    0.0833333333333334    0.4166666666666667    I3359
    0.5406252699917526    0.0833333333333334    0.7500000000000000    I3360
    0.5406252699917526    0.4166666666666667    0.0833333333333334    I3361
    0.5406252699917526    0.4166666666666667    0.4166666666666667    I3362
    0.5406252699917526    0.4166666666666667    0.7500000000000000    I3363
    0.5406252699917526    0.7500000000000000    0.0833333333333334    I3364
    0.5406252699917526    0.7500000000000000    0.4166666666666667    I3365
    0.5406252699917526    0.7500000000000000    0.7500000000000000    I3366
    0.8739586033250859    0.0833333333333334    0.0833333333333334    I3367
    0.8739586033250859    0.0833333333333334    0.4166666666666667    I3368
    0.8739586033250859    0.0833333333333334    0.7500000000000000    I3369
    0.8739586033250859    0.4166666666666667    0.0833333333333334    I3370
    0.8739586033250859    0.4166666666666667    0.4166666666666667    I3371
    0.8739586033250859    0.4166666666666667    0.7500000000000000    I3372
    0.8739586033250859    0.7500000000000000    0.0833333333333334    I3373
    0.8739586033250859    0.7500000000000000    0.4166666666666667    I3374
    0.8739586033250859    0.7500000000000000    0.7500000000000000    I3375
    0.2072919366584193    0.0833333333333334    0.2500000000000000    I3376
    0.2072919366584193    0.0833333333333334    0.5833333333333334    I3377
    0.2072919366584193    0.0833333333333334    0.9166666666666666    I3378
    0.2072919366584193    0.4166666666666667    0.2500000000000000    I3379
    0.2072919366584193    0.4166666666666667    0.5833333333333334    I3380
    0.2072919366584193    0.4166666666666667    0.9166666666666666    I3381
    0.2072919366584193    0.7500000000000000    0.2500000000000000    I3382
    0.2072919366584193    0.7500000000000000    0.5833333333333334    I3383
    0.2072919366584193    0.7500000000000000    0.9166666666666666    I3384
    0.5406252699917526    0.0833333333333334    0.2500000000000000    I3385
    0.5406252699917526    0.0833333333333334    0.5833333333333334    I3386
    0.5406252699917526    0.0833333333333334    0.9166666666666666    I3387
    0.5406252699917526    0.4166666666666667    0.2500000000000000    I3388
    0.5406252699917526    0.4166666666666667    0.5833333333333334    I3389
    0.5406252699917526    0.4166666666666667    0.9166666666666666    I3390
    0.5406252699917526    0.7500000000000000    0.2500000000000000    I3391
    0.5406252699917526    0.7500000000000000    0.5833333333333334    I3392
    0.5406252699917526    0.7500000000000000    0.9166666666666666    I3393
    0.8739586033250859    0.0833333333333334    0.2500000000000000    I3394
    0.8739586033250859    0.0833333333333334    0.5833333333333334    I3395
    0.8739586033250859    0.0833333333333334    0.9166666666666666    I3396
    0.8739586033250859    0.4166666666666667    0.2500000000000000    I3397
    0.8739586033250859    0.4166666666666667    0.5833333333333334    I3398
    0.8739586033250859    0.4166666666666667    0.9166666666666666    I3399
    0.8739586033250859    0.7500000000000000    0.2500000000000000    I3400
    0.8739586033250859    0.7500000000000000    0.5833333333333334    I3401
    0.8739586033250859    0.7500000000000000    0.9166666666666666    I3402
    0.2072919366584193    0.2500000000000000    0.0833333333333334    I3403
    0.2072919366584193    0.2500000000000000    0.4166666666666667    I3404
    0.2072919366584193    0.2500000000000000    0.7500000000000000    I3405
    0.2072919366584193    0.5833333333333334    0.0833333333333334    I3406
    0.2072919366584193    0.5833333333333334    0.4166666666666667    I3407
    0.2072919366584193    0.5833333333333334    0.7500000000000000    I3408
    0.2072919366584193    0.9166666666666666    0.0833333333333334    I3409
    0.2072919366584193    0.9166666666666666    0.4166666666666667    I3410
    0.2072919366584193    0.9166666666666666    0.7500000000000000    I3411
    0.5406252699917526    0.2500000000000000    0.0833333333333334    I3412
    0.5406252699917526    0.2500000000000000    0.4166666666666667    I3413
    0.5406252699917526    0.2500000000000000    0.7500000000000000    I3414
    0.5406252699917526    0.5833333333333334    0.0833333333333334    I3415
    0.5406252699917526    0.5833333333333334    0.4166666666666667    I3416
    0.5406252699917526    0.5833333333333334    0.7500000000000000    I3417
    0.5406252699917526    0.9166666666666666    0.0833333333333334    I3418
    0.5406252699917526    0.9166666666666666    0.4166666666666667    I3419
    0.5406252699917526    0.9166666666666666    0.7500000000000000    I3420
    0.8739586033250859    0.2500000000000000    0.0833333333333334    I3421
    0.8739586033250859    0.2500000000000000    0.4166666666666667    I3422
    0.8739586033250859    0.2500000000000000    0.7500000000000000    I3423
    0.8739586033250859    0.5833333333333334    0.0833333333333334    I3424
    0.8739586033250859    0.5833333333333334    0.4166666666666667    I3425
    0.8739586033250859    0.5833333333333334    0.7500000000000000    I3426
    0.8739586033250859    0.9166666666666666    0.0833333333333334    I3427
    0.8739586033250859    0.9166666666666666    0.4166666666666667    I3428
    0.8739586033250859    0.9166666666666666    0.7500000000000000    I3429
    0.2072919366584193    0.2500000000000000    0.2500000000000000    I3430
    0.2072919366584193    0.2500000000000000    0.5833333333333334    I3431
    0.2072919366584193    0.2500000000000000    0.9166666666666666    I3432
    0.2072919366584193    0.5833333333333334    0.2500000000000000    I3433
    0.2072919366584193    0.5833333333333334    0.5833333333333334    I3434
    0.2072919366584193    0.5833333333333334    0.9166666666666666    I3435
    0.2072919366584193    0.9166666666666666    0.2500000000000000    I3436
    0.2072919366584193    0.9166666666666666    0.5833333333333334    I3437
    0.2072919366584193    0.9166666666666666    0.9166666666666666    I3438
    0.5406252699917526    0.2500000000000000    0.2500000000000000    I3439
    0.5406252699917526    0.2500000000000000    0.5833333333333334    I3440
    0.5406252699917526    0.2500000000000000    0.9166666666666666    I3441
    0.5406252699917526    0.5833333333333334    0.2500000000000000    I3442
    0.5406252699917526    0.5833333333333334    0.5833333333333334    I3443
    0.5406252699917526    0.5833333333333334    0.9166666666666666    I3444
    0.5406252699917526    0.9166666666666666    0.2500000000000000    I3445
    0.5406252699917526    0.9166666666666666    0.5833333333333334    I3446
    0.5406252699917526    0.9166666666666666    0.9166666666666666    I3447
    0.8739586033250859    0.2500000000000000    0.2500000000000000    I3448
    0.8739586033250859    0.2500000000000000    0.5833333333333334    I3449
    0.8739586033250859    0.2500000000000000    0.9166666666666666    I3450
    0.8739586033250859    0.5833333333333334    0.2500000000000000    I3451
    0.8739586033250859    0.5833333333333334    0.5833333333333334    I3452
    0.8739586033250859    0.5833333333333334    0.9166666666666666    I3453
    0.8739586033250859    0.9166666666666666    0.2500000000000000    I3454
    0.8739586033250859    0.9166666666666666    0.5833333333333334    I3455
    0.8739586033250859    0.9166666666666666    0.9166666666666666    I3456
    0.0833333333333334    0.0833333333333334    0.1260413966749141    I3457
    0.0833333333333334    0.0833333333333334    0.4593747300082475    I3458
    0.0833333333333334    0.0833333333333334    0.7927080633415808    I3459
    0.0833333333333334    0.4166666666666667    0.1260413966749141    I3460
    0.0833333333333334    0.4166666666666667    0.4593747300082475    I3461
    0.0833333333333334    0.4166666666666667    0.7927080633415808    I3462
    0.0833333333333334    0.7500000000000000    0.1260413966749141    I3463
    0.0833333333333334    0.7500000000000000    0.4593747300082475    I3464
    0.0833333333333334    0.7500000000000000    0.7927080633415808    I3465
    0.4166666666666667    0.0833333333333334    0.1260413966749141    I3466
    0.4166666666666667    0.0833333333333334    0.4593747300082475    I3467
    0.4166666666666667    0.0833333333333334    0.7927080633415808    I3468
    0.4166666666666667    0.4166666666666667    0.1260413966749141    I3469
    0.4166666666666667    0.4166666666666667    0.4593747300082475    I3470
    0.4166666666666667    0.4166666666666667    0.7927080633415808    I3471
    0.4166666666666667    0.7500000000000000    0.1260413966749141    I3472
    0.4166666666666667    0.7500000000000000    0.4593747300082475    I3473
    0.4166666666666667    0.7500000000000000    0.7927080633415808    I3474
    0.7500000000000000    0.0833333333333334    0.1260413966749141    I3475
    0.7500000000000000    0.0833333333333334    0.4593747300082475    I3476
    0.7500000000000000    0.0833333333333334    0.7927080633415808    I3477
    0.7500000000000000    0.4166666666666667    0.1260413966749141    I3478
    0.7500000000000000    0.4166666666666667    0.4593747300082475    I3479
    0.7500000000000000    0.4166666666666667    0.7927080633415808    I3480
    0.7500000000000000    0.7500000000000000    0.1260413966749141    I3481
    0.7500000000000000    0.7500000000000000    0.4593747300082475    I3482
    0.7500000000000000    0.7500000000000000    0.7927080633415808    I3483
    0.0833333333333334    0.0833333333333334    0.2927080633415808    I3484
    0.0833333333333334    0.0833333333333334    0.6260413966749141    I3485
    0.0833333333333334    0.0833333333333334    0.9593747300082475    I3486
    0.0833333333333334    0.4166666666666667    0.2927080633415808    I3487
    0.0833333333333334    0.4166666666666667    0.6260413966749141    I3488
    0.0833333333333334    0.4166666666666667    0.9593747300082475    I3489
    0.0833333333333334    0.7500000000000000    0.2927080633415808    I3490
    0.0833333333333334    0.7500000000000000    0.6260413966749141    I3491
    0.0833333333333334    0.7500000000000000    0.9593747300082475    I3492
    0.4166666666666667    0.0833333333333334    0.2927080633415808    I3493
    0.4166666666666667    0.0833333333333334    0.6260413966749141    I3494
    0.4166666666666667    0.0833333333333334    0.9593747300082475    I3495
    0.4166666666666667    0.4166666666666667    0.2927080633415808    I3496
    0.4166666666666667    0.4166666666666667    0.6260413966749141    I3497
    0.4166666666666667    0.4166666666666667    0.9593747300082475    I3498
    0.4166666666666667    0.7500000000000000    0.2927080633415808    I3499
    0.4166666666666667    0.7500000000000000    0.6260413966749141    I3500
    0.4166666666666667    0.7500000000000000    0.9593747300082475    I3501
    0.7500000000000000    0.0833333333333334    0.2927080633415808    I3502
    0.7500000000000000    0.0833333333333334    0.6260413966749141    I3503
    0.7500000000000000    0.0833333333333334    0.9593747300082475    I3504
    0.7500000000000000    0.4166666666666667    0.2927080633415808    I3505
    0.7500000000000000    0.4166666666666667    0.6260413966749141    I3506
    0.7500000000000000    0.4166666666666667    0.9593747300082475    I3507
    0.7500000000000000    0.7500000000000000    0.2927080633415808    I3508
    0.7500000000000000    0.7500000000000000    0.6260413966749141    I3509
    0.7500000000000000    0.7500000000000000    0.9593747300082475    I3510
    0.0833333333333334    0.2500000000000000    0.1260413966749141    I3511
    0.0833333333333334    0.2500000000000000    0.4593747300082475    I3512
    0.0833333333333334    0.2500000000000000    0.7927080633415808    I3513
    0.0833333333333334    0.5833333333333334    0.1260413966749141    I3514
    0.0833333333333334    0.5833333333333334    0.4593747300082475    I3515
    0.0833333333333334    0.5833333333333334    0.7927080633415808    I3516
    0.0833333333333334    0.9166666666666666    0.1260413966749141    I3517
    0.0833333333333334    0.9166666666666666    0.4593747300082475    I3518
    0.0833333333333334    0.9166666666666666    0.7927080633415808    I3519
    0.4166666666666667    0.2500000000000000    0.1260413966749141    I3520
    0.4166666666666667    0.2500000000000000    0.4593747300082475    I3521
    0.4166666666666667    0.2500000000000000    0.7927080633415808    I3522
    0.4166666666666667    0.5833333333333334    0.1260413966749141    I3523
    0.4166666666666667    0.5833333333333334    0.4593747300082475    I3524
    0.4166666666666667    0.5833333333333334    0.7927080633415808    I3525
    0.4166666666666667    0.9166666666666666    0.1260413966749141    I3526
    0.4166666666666667    0.9166666666666666    0.4593747300082475    I3527
    0.4166666666666667    0.9166666666666666    0.7927080633415808    I3528
    0.7500000000000000    0.2500000000000000    0.1260413966749141    I3529
    0.7500000000000000    0.2500000000000000    0.4593747300082475    I3530
    0.7500000000000000    0.2500000000000000    0.7927080633415808    I3531
    0.7500000000000000    0.5833333333333334    0.1260413966749141    I3532
    0.7500000000000000    0.5833333333333334    0.4593747300082475    I3533
    0.7500000000000000    0.5833333333333334    0.7927080633415808    I3534
    0.7500000000000000    0.9166666666666666    0.1260413966749141    I3535
    0.7500000000000000    0.9166666666666666    0.4593747300082475    I3536
    0.7500000000000000    0.9166666666666666    0.7927080633415808    I3537
    0.0833333333333334    0.2500000000000000    0.2927080633415808    I3538
    0.0833333333333334    0.2500000000000000    0.6260413966749141    I3539
    0.0833333333333334    0.2500000000000000    0.9593747300082475    I3540
    0.0833333333333334    0.5833333333333334    0.2927080633415808    I3541
    0.0833333333333334    0.5833333333333334    0.6260413966749141    I3542
    0.0833333333333334    0.5833333333333334    0.9593747300082475    I3543
    0.0833333333333334    0.9166666666666666    0.2927080633415808    I3544
    0.0833333333333334    0.9166666666666666    0.6260413966749141    I3545
    0.0833333333333334    0.9166666666666666    0.9593747300082475    I3546
    0.4166666666666667    0.2500000000000000    0.2927080633415808    I3547
    0.4166666666666667    0.2500000000000000    0.6260413966749141    I3548
    0.4166666666666667    0.2500000000000000    0.9593747300082475    I3549
    0.4166666666666667    0.5833333333333334    0.2927080633415808    I3550
    0.4166666666666667    0.5833333333333334    0.6260413966749141    I3551
    0.4166666666666667    0.5833333333333334    0.9593747300082475    I3552
    0.4166666666666667    0.9166666666666666    0.2927080633415808    I3553
    0.4166666666666667    0.9166666666666666    0.6260413966749141    I3554
    0.4166666666666667    0.9166666666666666    0.9593747300082475    I3555
    0.7500000000000000    0.2500000000000000    0.2927080633415808    I3556
    0.7500000000000000    0.2500000000000000    0.6260413966749141    I3557
    0.7500000000000000    0.2500000000000000    0.9593747300082475    I3558
    0.7500000000000000    0.5833333333333334    0.2927080633415808    I3559
    0.7500000000000000    0.5833333333333334    0.6260413966749141    I3560
    0.7500000000000000    0.5833333333333334    0.9593747300082475    I3561
    0.7500000000000000    0.9166666666666666    0.2927080633415808    I3562
    0.7500000000000000    0.9166666666666666    0.6260413966749141    I3563
    0.7500000000000000    0.9166666666666666    0.9593747300082475    I3564
    0.2500000000000000    0.0833333333333334    0.1260413966749141    I3565
    0.2500000000000000    0.0833333333333334    0.4593747300082475    I3566
    0.2500000000000000    0.0833333333333334    0.7927080633415808    I3567
    0.2500000000000000    0.4166666666666667    0.1260413966749141    I3568
    0.2500000000000000    0.4166666666666667    0.4593747300082475    I3569
    0.2500000000000000    0.4166666666666667    0.7927080633415808    I3570
    0.2500000000000000    0.7500000000000000    0.1260413966749141    I3571
    0.2500000000000000    0.7500000000000000    0.4593747300082475    I3572
    0.2500000000000000    0.7500000000000000    0.7927080633415808    I3573
    0.5833333333333334    0.0833333333333334    0.1260413966749141    I3574
    0.5833333333333334    0.0833333333333334    0.4593747300082475    I3575
    0.5833333333333334    0.0833333333333334    0.7927080633415808    I3576
    0.5833333333333334    0.4166666666666667    0.1260413966749141    I3577
    0.5833333333333334    0.4166666666666667    0.4593747300082475    I3578
    0.5833333333333334    0.4166666666666667    0.7927080633415808    I3579
    0.5833333333333334    0.7500000000000000    0.1260413966749141    I3580
    0.5833333333333334    0.7500000000000000    0.4593747300082475    I3581
    0.5833333333333334    0.7500000000000000    0.7927080633415808    I3582
    0.9166666666666666    0.0833333333333334    0.1260413966749141    I3583
    0.9166666666666666    0.0833333333333334    0.4593747300082475    I3584
    0.9166666666666666    0.0833333333333334    0.7927080633415808    I3585
    0.9166666666666666    0.4166666666666667    0.1260413966749141    I3586
    0.9166666666666666    0.4166666666666667    0.4593747300082475    I3587
    0.9166666666666666    0.4166666666666667    0.7927080633415808    I3588
    0.9166666666666666    0.7500000000000000    0.1260413966749141    I3589
    0.9166666666666666    0.7500000000000000    0.4593747300082475    I3590
    0.9166666666666666    0.7500000000000000    0.7927080633415808    I3591
    0.2500000000000000    0.0833333333333334    0.2927080633415808    I3592
    0.2500000000000000    0.0833333333333334    0.6260413966749141    I3593
    0.2500000000000000    0.0833333333333334    0.9593747300082475    I3594
    0.2500000000000000    0.4166666666666667    0.2927080633415808    I3595
    0.2500000000000000    0.4166666666666667    0.6260413966749141    I3596
    0.2500000000000000    0.4166666666666667    0.9593747300082475    I3597
    0.2500000000000000    0.7500000000000000    0.2927080633415808    I3598
    0.2500000000000000    0.7500000000000000    0.6260413966749141    I3599
    0.2500000000000000    0.7500000000000000    0.9593747300082475    I3600
    0.5833333333333334    0.0833333333333334    0.2927080633415808    I3601
    0.5833333333333334    0.0833333333333334    0.6260413966749141    I3602
    0.5833333333333334    0.0833333333333334    0.9593747300082475    I3603
    0.5833333333333334    0.4166666666666667    0.2927080633415808    I3604
    0.5833333333333334    0.4166666666666667    0.6260413966749141    I3605
    0.5833333333333334    0.4166666666666667    0.9593747300082475    I3606
    0.5833333333333334    0.7500000000000000    0.2927080633415808    I3607
    0.5833333333333334    0.7500000000000000    0.6260413966749141    I3608
    0.5833333333333334    0.7500000000000000    0.9593747300082475    I3609
    0.9166666666666666    0.0833333333333334    0.2927080633415808    I3610
    0.9166666666666666    0.0833333333333334    0.6260413966749141    I3611
    0.9166666666666666    0.0833333333333334    0.9593747300082475    I3612
    0.9166666666666666    0.4166666666666667    0.2927080633415808    I3613
    0.9166666666666666    0.4166666666666667    0.6260413966749141    I3614
    0.9166666666666666    0.4166666666666667    0.9593747300082475    I3615
    0.9166666666666666    0.7500000000000000    0.2927080633415808    I3616
    0.9166666666666666    0.7500000000000000    0.6260413966749141    I3617
    0.9166666666666666    0.7500000000000000    0.9593747300082475    I3618
    0.2500000000000000    0.2500000000000000    0.1260413966749141    I3619
    0.2500000000000000    0.2500000000000000    0.4593747300082475    I3620
    0.2500000000000000    0.2500000000000000    0.7927080633415808    I3621
    0.2500000000000000    0.5833333333333334    0.1260413966749141    I3622
    0.2500000000000000    0.5833333333333334    0.4593747300082475    I3623
    0.2500000000000000    0.5833333333333334    0.7927080633415808    I3624
    0.2500000000000000    0.9166666666666666    0.1260413966749141    I3625
    0.2500000000000000    0.9166666666666666    0.4593747300082475    I3626
    0.2500000000000000    0.9166666666666666    0.7927080633415808    I3627
    0.5833333333333334    0.2500000000000000    0.1260413966749141    I3628
    0.5833333333333334    0.2500000000000000    0.4593747300082475    I3629
    0.5833333333333334    0.2500000000000000    0.7927080633415808    I3630
    0.5833333333333334    0.5833333333333334    0.1260413966749141    I3631
    0.5833333333333334    0.5833333333333334    0.4593747300082475    I3632
    0.5833333333333334    0.5833333333333334    0.7927080633415808    I3633
    0.5833333333333334    0.9166666666666666    0.1260413966749141    I3634
    0.5833333333333334    0.9166666666666666    0.4593747300082475    I3635
    0.5833333333333334    0.9166666666666666    0.7927080633415808    I3636
    0.9166666666666666    0.2500000000000000    0.1260413966749141    I3637
    0.9166666666666666    0.2500000000000000    0.4593747300082475    I3638
    0.9166666666666666    0.2500000000000000    0.7927080633415808    I3639
    0.9166666666666666    0.5833333333333334    0.1260413966749141    I3640
    0.9166666666666666    0.5833333333333334    0.4593747300082475    I3641
    0.9166666666666666    0.5833333333333334    0.7927080633415808    I3642
    0.9166666666666666    0.9166666666666666    0.1260413966749141    I3643
    0.9166666666666666    0.9166666666666666    0.4593747300082475    I3644
    0.9166666666666666    0.9166666666666666    0.7927080633415808    I3645
    0.2500000000000000    0.2500000000000000    0.2927080633415808    I3646
    0.2500000000000000    0.2500000000000000    0.6260413966749141    I3647
    0.2500000000000000    0.2500000000000000    0.9593747300082475    I3648
    0.2500000000000000    0.5833333333333334    0.2927080633415808    I3649
    0.2500000000000000    0.5833333333333334    0.6260413966749141    I3650
    0.2500000000000000    0.5833333333333334    0.9593747300082475    I3651
    0.2500000000000000    0.9166666666666666    0.2927080633415808    I3652
    0.2500000000000000    0.9166666666666666    0.6260413966749141    I3653
    0.2500000000000000    0.9166666666666666    0.9593747300082475    I3654
    0.5833333333333334    0.2500000000000000    0.2927080633415808    I3655
    0.5833333333333334    0.2500000000000000    0.6260413966749141    I3656
    0.5833333333333334    0.2500000000000000    0.9593747300082475    I3657
    0.5833333333333334    0.5833333333333334    0.2927080633415808    I3658
    0.5833333333333334    0.5833333333333334    0.6260413966749141    I3659
    0.5833333333333334    0.5833333333333334    0.9593747300082475    I3660
    0.5833333333333334    0.9166666666666666    0.2927080633415808    I3661
    0.5833333333333334    0.9166666666666666    0.6260413966749141    I3662
    0.5833333333333334    0.9166666666666666    0.9593747300082475    I3663
    0.9166666666666666    0.2500000000000000    0.2927080633415808    I3664
    0.9166666666666666    0.2500000000000000    0.6260413966749141    I3665
    0.9166666666666666    0.2500000000000000    0.9593747300082475    I3666
    0.9166666666666666    0.5833333333333334    0.2927080633415808    I3667
    0.9166666666666666    0.5833333333333334    0.6260413966749141    I3668
    0.9166666666666666    0.5833333333333334    0.9593747300082475    I3669
    0.9166666666666666    0.9166666666666666    0.2927080633415808    I3670
    0.9166666666666666    0.9166666666666666    0.6260413966749141    I3671
    0.9166666666666666    0.9166666666666666    0.9593747300082475    I3672
    0.0833333333333334    0.0833333333333334    0.0406252699917526    I3673
    0.0833333333333334    0.0833333333333334    0.3739586033250859    I3674
    0.0833333333333334    0.0833333333333334    0.7072919366584193    I3675
    0.0833333333333334    0.4166666666666667    0.0406252699917526    I3676
    0.0833333333333334    0.4166666666666667    0.3739586033250859    I3677
    0.0833333333333334    0.4166666666666667    0.7072919366584193    I3678
    0.0833333333333334    0.7500000000000000    0.0406252699917526    I3679
    0.0833333333333334    0.7500000000000000    0.3739586033250859    I3680
    0.0833333333333334    0.7500000000000000    0.7072919366584193    I3681
    0.4166666666666667    0.0833333333333334    0.0406252699917526    I3682
    0.4166666666666667    0.0833333333333334    0.3739586033250859    I3683
    0.4166666666666667    0.0833333333333334    0.7072919366584193    I3684
    0.4166666666666667    0.4166666666666667    0.0406252699917526    I3685
    0.4166666666666667    0.4166666666666667    0.3739586033250859    I3686
    0.4166666666666667    0.4166666666666667    0.7072919366584193    I3687
    0.4166666666666667    0.7500000000000000    0.0406252699917526    I3688
    0.4166666666666667    0.7500000000000000    0.3739586033250859    I3689
    0.4166666666666667    0.7500000000000000    0.7072919366584193    I3690
    0.7500000000000000    0.0833333333333334    0.0406252699917526    I3691
    0.7500000000000000    0.0833333333333334    0.3739586033250859    I3692
    0.7500000000000000    0.0833333333333334    0.7072919366584193    I3693
    0.7500000000000000    0.4166666666666667    0.0406252699917526    I3694
    0.7500000000000000    0.4166666666666667    0.3739586033250859    I3695
    0.7500000000000000    0.4166666666666667    0.7072919366584193    I3696
    0.7500000000000000    0.7500000000000000    0.0406252699917526    I3697
    0.7500000000000000    0.7500000000000000    0.3739586033250859    I3698
    0.7500000000000000    0.7500000000000000    0.7072919366584193    I3699
    0.0833333333333334    0.0833333333333334    0.2072919366584193    I3700
    0.0833333333333334    0.0833333333333334    0.5406252699917526    I3701
    0.0833333333333334    0.0833333333333334    0.8739586033250859    I3702
    0.0833333333333334    0.4166666666666667    0.2072919366584193    I3703
    0.0833333333333334    0.4166666666666667    0.5406252699917526    I3704
    0.0833333333333334    0.4166666666666667    0.8739586033250859    I3705
    0.0833333333333334    0.7500000000000000    0.2072919366584193    I3706
    0.0833333333333334    0.7500000000000000    0.5406252699917526    I3707
    0.0833333333333334    0.7500000000000000    0.8739586033250859    I3708
    0.4166666666666667    0.0833333333333334    0.2072919366584193    I3709
    0.4166666666666667    0.0833333333333334    0.5406252699917526    I3710
    0.4166666666666667    0.0833333333333334    0.8739586033250859    I3711
    0.4166666666666667    0.4166666666666667    0.2072919366584193    I3712
    0.4166666666666667    0.4166666666666667    0.5406252699917526    I3713
    0.4166666666666667    0.4166666666666667    0.8739586033250859    I3714
    0.4166666666666667    0.7500000000000000    0.2072919366584193    I3715
    0.4166666666666667    0.7500000000000000    0.5406252699917526    I3716
    0.4166666666666667    0.7500000000000000    0.8739586033250859    I3717
    0.7500000000000000    0.0833333333333334    0.2072919366584193    I3718
    0.7500000000000000    0.0833333333333334    0.5406252699917526    I3719
    0.7500000000000000    0.0833333333333334    0.8739586033250859    I3720
    0.7500000000000000    0.4166666666666667    0.2072919366584193    I3721
    0.7500000000000000    0.4166666666666667    0.5406252699917526    I3722
    0.7500000000000000    0.4166666666666667    0.8739586033250859    I3723
    0.7500000000000000    0.7500000000000000    0.2072919366584193    I3724
    0.7500000000000000    0.7500000000000000    0.5406252699917526    I3725
    0.7500000000000000    0.7500000000000000    0.8739586033250859    I3726
    0.0833333333333334    0.2500000000000000    0.0406252699917526    I3727
    0.0833333333333334    0.2500000000000000    0.3739586033250859    I3728
    0.0833333333333334    0.2500000000000000    0.7072919366584193    I3729
    0.0833333333333334    0.5833333333333334    0.0406252699917526    I3730
    0.0833333333333334    0.5833333333333334    0.3739586033250859    I3731
    0.0833333333333334    0.5833333333333334    0.7072919366584193    I3732
    0.0833333333333334    0.9166666666666666    0.0406252699917526    I3733
    0.0833333333333334    0.9166666666666666    0.3739586033250859    I3734
    0.0833333333333334    0.9166666666666666    0.7072919366584193    I3735
    0.4166666666666667    0.2500000000000000    0.0406252699917526    I3736
    0.4166666666666667    0.2500000000000000    0.3739586033250859    I3737
    0.4166666666666667    0.2500000000000000    0.7072919366584193    I3738
    0.4166666666666667    0.5833333333333334    0.0406252699917526    I3739
    0.4166666666666667    0.5833333333333334    0.3739586033250859    I3740
    0.4166666666666667    0.5833333333333334    0.7072919366584193    I3741
    0.4166666666666667    0.9166666666666666    0.0406252699917526    I3742
    0.4166666666666667    0.9166666666666666    0.3739586033250859    I3743
    0.4166666666666667    0.9166666666666666    0.7072919366584193    I3744
    0.7500000000000000    0.2500000000000000    0.0406252699917526    I3745
    0.7500000000000000    0.2500000000000000    0.3739586033250859    I3746
    0.7500000000000000    0.2500000000000000    0.7072919366584193    I3747
    0.7500000000000000    0.5833333333333334    0.0406252699917526    I3748
    0.7500000000000000    0.5833333333333334    0.3739586033250859    I3749
    0.7500000000000000    0.5833333333333334    0.7072919366584193    I3750
    0.7500000000000000    0.9166666666666666    0.0406252699917526    I3751
    0.7500000000000000    0.9166666666666666    0.3739586033250859    I3752
    0.7500000000000000    0.9166666666666666    0.7072919366584193    I3753
    0.0833333333333334    0.2500000000000000    0.2072919366584193    I3754
    0.0833333333333334    0.2500000000000000    0.5406252699917526    I3755
    0.0833333333333334    0.2500000000000000    0.8739586033250859    I3756
    0.0833333333333334    0.5833333333333334    0.2072919366584193    I3757
    0.0833333333333334    0.5833333333333334    0.5406252699917526    I3758
    0.0833333333333334    0.5833333333333334    0.8739586033250859    I3759
    0.0833333333333334    0.9166666666666666    0.2072919366584193    I3760
    0.0833333333333334    0.9166666666666666    0.5406252699917526    I3761
    0.0833333333333334    0.9166666666666666    0.8739586033250859    I3762
    0.4166666666666667    0.2500000000000000    0.2072919366584193    I3763
    0.4166666666666667    0.2500000000000000    0.5406252699917526    I3764
    0.4166666666666667    0.2500000000000000    0.8739586033250859    I3765
    0.4166666666666667    0.5833333333333334    0.2072919366584193    I3766
    0.4166666666666667    0.5833333333333334    0.5406252699917526    I3767
    0.4166666666666667    0.5833333333333334    0.8739586033250859    I3768
    0.4166666666666667    0.9166666666666666    0.2072919366584193    I3769
    0.4166666666666667    0.9166666666666666    0.5406252699917526    I3770
    0.4166666666666667    0.9166666666666666    0.8739586033250859    I3771
    0.7500000000000000    0.2500000000000000    0.2072919366584193    I3772
    0.7500000000000000    0.2500000000000000    0.5406252699917526    I3773
    0.7500000000000000    0.2500000000000000    0.8739586033250859    I3774
    0.7500000000000000    0.5833333333333334    0.2072919366584193    I3775
    0.7500000000000000    0.5833333333333334    0.5406252699917526    I3776
    0.7500000000000000    0.5833333333333334    0.8739586033250859    I3777
    0.7500000000000000    0.9166666666666666    0.2072919366584193    I3778
    0.7500000000000000    0.9166666666666666    0.5406252699917526    I3779
    0.7500000000000000    0.9166666666666666    0.8739586033250859    I3780
    0.2500000000000000    0.0833333333333334    0.0406252699917526    I3781
    0.2500000000000000    0.0833333333333334    0.3739586033250859    I3782
    0.2500000000000000    0.0833333333333334    0.7072919366584193    I3783
    0.2500000000000000    0.4166666666666667    0.0406252699917526    I3784
    0.2500000000000000    0.4166666666666667    0.3739586033250859    I3785
    0.2500000000000000    0.4166666666666667    0.7072919366584193    I3786
    0.2500000000000000    0.7500000000000000    0.0406252699917526    I3787
    0.2500000000000000    0.7500000000000000    0.3739586033250859    I3788
    0.2500000000000000    0.7500000000000000    0.7072919366584193    I3789
    0.5833333333333334    0.0833333333333334    0.0406252699917526    I3790
    0.5833333333333334    0.0833333333333334    0.3739586033250859    I3791
    0.5833333333333334    0.0833333333333334    0.7072919366584193    I3792
    0.5833333333333334    0.4166666666666667    0.0406252699917526    I3793
    0.5833333333333334    0.4166666666666667    0.3739586033250859    I3794
    0.5833333333333334    0.4166666666666667    0.7072919366584193    I3795
    0.5833333333333334    0.7500000000000000    0.0406252699917526    I3796
    0.5833333333333334    0.7500000000000000    0.3739586033250859    I3797
    0.5833333333333334    0.7500000000000000    0.7072919366584193    I3798
    0.9166666666666666    0.0833333333333334    0.0406252699917526    I3799
    0.9166666666666666    0.0833333333333334    0.3739586033250859    I3800
    0.9166666666666666    0.0833333333333334    0.7072919366584193    I3801
    0.9166666666666666    0.4166666666666667    0.0406252699917526    I3802
    0.9166666666666666    0.4166666666666667    0.3739586033250859    I3803
    0.9166666666666666    0.4166666666666667    0.7072919366584193    I3804
    0.9166666666666666    0.7500000000000000    0.0406252699917526    I3805
    0.9166666666666666    0.7500000000000000    0.3739586033250859    I3806
    0.9166666666666666    0.7500000000000000    0.7072919366584193    I3807
    0.2500000000000000    0.0833333333333334    0.2072919366584193    I3808
    0.2500000000000000    0.0833333333333334    0.5406252699917526    I3809
    0.2500000000000000    0.0833333333333334    0.8739586033250859    I3810
    0.2500000000000000    0.4166666666666667    0.2072919366584193    I3811
    0.2500000000000000    0.4166666666666667    0.5406252699917526    I3812
    0.2500000000000000    0.4166666666666667    0.8739586033250859    I3813
    0.2500000000000000    0.7500000000000000    0.2072919366584193    I3814
    0.2500000000000000    0.7500000000000000    0.5406252699917526    I3815
    0.2500000000000000    0.7500000000000000    0.8739586033250859    I3816
    0.5833333333333334    0.0833333333333334    0.2072919366584193    I3817
    0.5833333333333334    0.0833333333333334    0.5406252699917526    I3818
    0.5833333333333334    0.0833333333333334    0.8739586033250859    I3819
    0.5833333333333334    0.4166666666666667    0.2072919366584193    I3820
    0.5833333333333334    0.4166666666666667    0.5406252699917526    I3821
    0.5833333333333334    0.4166666666666667    0.8739586033250859    I3822
    0.5833333333333334    0.7500000000000000    0.2072919366584193    I3823
    0.5833333333333334    0.7500000000000000    0.5406252699917526    I3824
    0.5833333333333334    0.7500000000000000    0.8739586033250859    I3825
    0.9166666666666666    0.0833333333333334    0.2072919366584193    I3826
    0.9166666666666666    0.0833333333333334    0.5406252699917526    I3827
    0.9166666666666666    0.0833333333333334    0.8739586033250859    I3828
    0.9166666666666666    0.4166666666666667    0.2072919366584193    I3829
    0.9166666666666666    0.4166666666666667    0.5406252699917526    I3830
    0.9166666666666666    0.4166666666666667    0.8739586033250859    I3831
    0.9166666666666666    0.7500000000000000    0.2072919366584193    I3832
    0.9166666666666666    0.7500000000000000    0.5406252699917526    I3833
    0.9166666666666666    0.7500000000000000    0.8739586033250859    I3834
    0.2500000000000000    0.2500000000000000    0.0406252699917526    I3835
    0.2500000000000000    0.2500000000000000    0.3739586033250859    I3836
    0.2500000000000000    0.2500000000000000    0.7072919366584193    I3837
    0.2500000000000000    0.5833333333333334    0.0406252699917526    I3838
    0.2500000000000000    0.5833333333333334    0.3739586033250859    I3839
    0.2500000000000000    0.5833333333333334    0.7072919366584193    I3840
    0.2500000000000000    0.9166666666666666    0.0406252699917526    I3841
    0.2500000000000000    0.9166666666666666    0.3739586033250859    I3842
    0.2500000000000000    0.9166666666666666    0.7072919366584193    I3843
    0.5833333333333334    0.2500000000000000    0.0406252699917526    I3844
    0.5833333333333334    0.2500000000000000    0.3739586033250859    I3845
    0.5833333333333334    0.2500000000000000    0.7072919366584193    I3846
    0.5833333333333334    0.5833333333333334    0.0406252699917526    I3847
    0.5833333333333334    0.5833333333333334    0.3739586033250859    I3848
    0.5833333333333334    0.5833333333333334    0.7072919366584193    I3849
    0.5833333333333334    0.9166666666666666    0.0406252699917526    I3850
    0.5833333333333334    0.9166666666666666    0.3739586033250859    I3851
    0.5833333333333334    0.9166666666666666    0.7072919366584193    I3852
    0.9166666666666666    0.2500000000000000    0.0406252699917526    I3853
    0.9166666666666666    0.2500000000000000    0.3739586033250859    I3854
    0.9166666666666666    0.2500000000000000    0.7072919366584193    I3855
    0.9166666666666666    0.5833333333333334    0.0406252699917526    I3856
    0.9166666666666666    0.5833333333333334    0.3739586033250859    I3857
    0.9166666666666666    0.5833333333333334    0.7072919366584193    I3858
    0.9166666666666666    0.9166666666666666    0.0406252699917526    I3859
    0.9166666666666666    0.9166666666666666    0.3739586033250859    I3860
    0.9166666666666666    0.9166666666666666    0.7072919366584193    I3861
    0.2500000000000000    0.2500000000000000    0.2072919366584193    I3862
    0.2500000000000000    0.2500000000000000    0.5406252699917526    I3863
    0.2500000000000000    0.2500000000000000    0.8739586033250859    I3864
    0.2500000000000000    0.5833333333333334    0.2072919366584193    I3865
    0.2500000000000000    0.5833333333333334    0.5406252699917526    I3866
    0.2500000000000000    0.5833333333333334    0.8739586033250859    I3867
    0.2500000000000000    0.9166666666666666    0.2072919366584193    I3868
    0.2500000000000000    0.9166666666666666    0.5406252699917526    I3869
    0.2500000000000000    0.9166666666666666    0.8739586033250859    I3870
    0.5833333333333334    0.2500000000000000    0.2072919366584193    I3871
    0.5833333333333334    0.2500000000000000    0.5406252699917526    I3872
    0.5833333333333334    0.2500000000000000    0.8739586033250859    I3873
    0.5833333333333334    0.5833333333333334    0.2072919366584193    I3874
    0.5833333333333334    0.5833333333333334    0.5406252699917526    I3875
    0.5833333333333334    0.5833333333333334    0.8739586033250859    I3876
    0.5833333333333334    0.9166666666666666    0.2072919366584193    I3877
    0.5833333333333334    0.9166666666666666    0.5406252699917526    I3878
    0.5833333333333334    0.9166666666666666    0.8739586033250859    I3879
    0.9166666666666666    0.2500000000000000    0.2072919366584193    I3880
    0.9166666666666666    0.2500000000000000    0.5406252699917526    I3881
    0.9166666666666666    0.2500000000000000    0.8739586033250859    I3882
    0.9166666666666666    0.5833333333333334    0.2072919366584193    I3883
    0.9166666666666666    0.5833333333333334    0.5406252699917526    I3884
    0.9166666666666666    0.5833333333333334    0.8739586033250859    I3885
    0.9166666666666666    0.9166666666666666    0.2072919366584193    I3886
    0.9166666666666666    0.9166666666666666    0.5406252699917526    I3887
    0.9166666666666666    0.9166666666666666    0.8739586033250859    I3888
    0.0427080633415808    0.0000000000000000    0.0833333333333334    I3889
    0.0427080633415808    0.0000000000000000    0.4166666666666667    I3890
    0.0427080633415808    0.0000000000000000    0.7500000000000000    I3891
    0.0427080633415808    0.3333333333333334    0.0833333333333334    I3892
    0.0427080633415808    0.3333333333333334    0.4166666666666667    I3893
    0.0427080633415808    0.3333333333333334    0.7500000000000000    I3894
    0.0427080633415808    0.6666666666666667    0.0833333333333334    I3895
    0.0427080633415808    0.6666666666666667    0.4166666666666667    I3896
    0.0427080633415808    0.6666666666666667    0.7500000000000000    I3897
    0.3760413966749141    0.0000000000000000    0.0833333333333334    I3898
    0.3760413966749141    0.0000000000000000    0.4166666666666667    I3899
    0.3760413966749141    0.0000000000000000    0.7500000000000000    I3900
    0.3760413966749141    0.3333333333333334    0.0833333333333334    I3901
    0.3760413966749141    0.3333333333333334    0.4166666666666667    I3902
    0.3760413966749141    0.3333333333333334    0.7500000000000000    I3903
    0.3760413966749141    0.6666666666666667    0.0833333333333334    I3904
    0.3760413966749141    0.6666666666666667    0.4166666666666667    I3905
    0.3760413966749141    0.6666666666666667    0.7500000000000000    I3906
    0.7093747300082474    0.0000000000000000    0.0833333333333334    I3907
    0.7093747300082474    0.0000000000000000    0.4166666666666667    I3908
    0.7093747300082474    0.0000000000000000    0.7500000000000000    I3909
    0.7093747300082474    0.3333333333333334    0.0833333333333334    I3910
    0.7093747300082474    0.3333333333333334    0.4166666666666667    I3911
    0.7093747300082474    0.3333333333333334    0.7500000000000000    I3912
    0.7093747300082474    0.6666666666666667    0.0833333333333334    I3913
    0.7093747300082474    0.6666666666666667    0.4166666666666667    I3914
    0.7093747300082474    0.6666666666666667    0.7500000000000000    I3915
    0.0427080633415808    0.0000000000000000    0.2500000000000000    I3916
    0.0427080633415808    0.0000000000000000    0.5833333333333334    I3917
    0.0427080633415808    0.0000000000000000    0.9166666666666666    I3918
    0.0427080633415808    0.3333333333333334    0.2500000000000000    I3919
    0.0427080633415808    0.3333333333333334    0.5833333333333334    I3920
    0.0427080633415808    0.3333333333333334    0.9166666666666666    I3921
    0.0427080633415808    0.6666666666666667    0.2500000000000000    I3922
    0.0427080633415808    0.6666666666666667    0.5833333333333334    I3923
    0.0427080633415808    0.6666666666666667    0.9166666666666666    I3924
    0.3760413966749141    0.0000000000000000    0.2500000000000000    I3925
    0.3760413966749141    0.0000000000000000    0.5833333333333334    I3926
    0.3760413966749141    0.0000000000000000    0.9166666666666666    I3927
    0.3760413966749141    0.3333333333333334    0.2500000000000000    I3928
    0.3760413966749141    0.3333333333333334    0.5833333333333334    I3929
    0.3760413966749141    0.3333333333333334    0.9166666666666666    I3930
    0.3760413966749141    0.6666666666666667    0.2500000000000000    I3931
    0.3760413966749141    0.6666666666666667    0.5833333333333334    I3932
    0.3760413966749141    0.6666666666666667    0.9166666666666666    I3933
    0.7093747300082474    0.0000000000000000    0.2500000000000000    I3934
    0.7093747300082474    0.0000000000000000    0.5833333333333334    I3935
    0.7093747300082474    0.0000000000000000    0.9166666666666666    I3936
    0.7093747300082474    0.3333333333333334    0.2500000000000000    I3937
    0.7093747300082474    0.3333333333333334    0.5833333333333334    I3938
    0.7093747300082474    0.3333333333333334    0.9166666666666666    I3939
    0.7093747300082474    0.6666666666666667    0.2500000000000000    I3940
    0.7093747300082474    0.6666666666666667    0.5833333333333334    I3941
    0.7093747300082474    0.6666666666666667    0.9166666666666666    I3942
    0.0427080633415808    0.1666666666666667    0.0833333333333334    I3943
    0.0427080633415808    0.1666666666666667    0.4166666666666667    I3944
    0.0427080633415808    0.1666666666666667    0.7500000000000000    I3945
    0.0427080633415808    0.5000000000000000    0.0833333333333334    I3946
    0.0427080633415808    0.5000000000000000    0.4166666666666667    I3947
    0.0427080633415808    0.5000000000000000    0.7500000000000000    I3948
    0.0427080633415808    0.8333333333333334    0.0833333333333334    I3949
    0.0427080633415808    0.8333333333333334    0.4166666666666667    I3950
    0.0427080633415808    0.8333333333333334    0.7500000000000000    I3951
    0.3760413966749141    0.1666666666666667    0.0833333333333334    I3952
    0.3760413966749141    0.1666666666666667    0.4166666666666667    I3953
    0.3760413966749141    0.1666666666666667    0.7500000000000000    I3954
    0.3760413966749141    0.5000000000000000    0.0833333333333334    I3955
    0.3760413966749141    0.5000000000000000    0.4166666666666667    I3956
    0.3760413966749141    0.5000000000000000    0.7500000000000000    I3957
    0.3760413966749141    0.8333333333333334    0.0833333333333334    I3958
    0.3760413966749141    0.8333333333333334    0.4166666666666667    I3959
    0.3760413966749141    0.8333333333333334    0.7500000000000000    I3960
    0.7093747300082474    0.1666666666666667    0.0833333333333334    I3961
    0.7093747300082474    0.1666666666666667    0.4166666666666667    I3962
    0.7093747300082474    0.1666666666666667    0.7500000000000000    I3963
    0.7093747300082474    0.5000000000000000    0.0833333333333334    I3964
    0.7093747300082474    0.5000000000000000    0.4166666666666667    I3965
    0.7093747300082474    0.5000000000000000    0.7500000000000000    I3966
    0.7093747300082474    0.8333333333333334    0.0833333333333334    I3967
    0.7093747300082474    0.8333333333333334    0.4166666666666667    I3968
    0.7093747300082474    0.8333333333333334    0.7500000000000000    I3969
    0.0427080633415808    0.1666666666666667    0.2500000000000000    I3970
    0.0427080633415808    0.1666666666666667    0.5833333333333334    I3971
    0.0427080633415808    0.1666666666666667    0.9166666666666666    I3972
    0.0427080633415808    0.5000000000000000    0.2500000000000000    I3973
    0.0427080633415808    0.5000000000000000    0.5833333333333334    I3974
    0.0427080633415808    0.5000000000000000    0.9166666666666666    I3975
    0.0427080633415808    0.8333333333333334    0.2500000000000000    I3976
    0.0427080633415808    0.8333333333333334    0.5833333333333334    I3977
    0.0427080633415808    0.8333333333333334    0.9166666666666666    I3978
    0.3760413966749141    0.1666666666666667    0.2500000000000000    I3979
    0.3760413966749141    0.1666666666666667    0.5833333333333334    I3980
    0.3760413966749141    0.1666666666666667    0.9166666666666666    I3981
    0.3760413966749141    0.5000000000000000    0.2500000000000000    I3982
    0.3760413966749141    0.5000000000000000    0.5833333333333334    I3983
    0.3760413966749141    0.5000000000000000    0.9166666666666666    I3984
    0.3760413966749141    0.8333333333333334    0.2500000000000000    I3985
    0.3760413966749141    0.8333333333333334    0.5833333333333334    I3986
    0.3760413966749141    0.8333333333333334    0.9166666666666666    I3987
    0.7093747300082474    0.1666666666666667    0.2500000000000000    I3988
    0.7093747300082474    0.1666666666666667    0.5833333333333334    I3989
    0.7093747300082474    0.1666666666666667    0.9166666666666666    I3990
    0.7093747300082474    0.5000000000000000    0.2500000000000000    I3991
    0.7093747300082474    0.5000000000000000    0.5833333333333334    I3992
    0.7093747300082474    0.5000000000000000    0.9166666666666666    I3993
    0.7093747300082474    0.8333333333333334    0.2500000000000000    I3994
    0.7093747300082474    0.8333333333333334    0.5833333333333334    I3995
    0.7093747300082474    0.8333333333333334    0.9166666666666666    I3996
    0.2093747300082475    0.0000000000000000    0.0833333333333334    I3997
    0.2093747300082475    0.0000000000000000    0.4166666666666667    I3998
    0.2093747300082475    0.0000000000000000    0.7500000000000000    I3999
    0.2093747300082475    0.3333333333333334    0.0833333333333334    I4000
    0.2093747300082475    0.3333333333333334    0.4166666666666667    I4001
    0.2093747300082475    0.3333333333333334    0.7500000000000000    I4002
    0.2093747300082475    0.6666666666666667    0.0833333333333334    I4003
    0.2093747300082475    0.6666666666666667    0.4166666666666667    I4004
    0.2093747300082475    0.6666666666666667    0.7500000000000000    I4005
    0.5427080633415808    0.0000000000000000    0.0833333333333334    I4006
    0.5427080633415808    0.0000000000000000    0.4166666666666667    I4007
    0.5427080633415808    0.0000000000000000    0.7500000000000000    I4008
    0.5427080633415808    0.3333333333333334    0.0833333333333334    I4009
    0.5427080633415808    0.3333333333333334    0.4166666666666667    I4010
    0.5427080633415808    0.3333333333333334    0.7500000000000000    I4011
    0.5427080633415808    0.6666666666666667    0.0833333333333334    I4012
    0.5427080633415808    0.6666666666666667    0.4166666666666667    I4013
    0.5427080633415808    0.6666666666666667    0.7500000000000000    I4014
    0.8760413966749141    0.0000000000000000    0.0833333333333334    I4015
    0.8760413966749141    0.0000000000000000    0.4166666666666667    I4016
    0.8760413966749141    0.0000000000000000    0.7500000000000000    I4017
    0.8760413966749141    0.3333333333333334    0.0833333333333334    I4018
    0.8760413966749141    0.3333333333333334    0.4166666666666667    I4019
    0.8760413966749141    0.3333333333333334    0.7500000000000000    I4020
    0.8760413966749141    0.6666666666666667    0.0833333333333334    I4021
    0.8760413966749141    0.6666666666666667    0.4166666666666667    I4022
    0.8760413966749141    0.6666666666666667    0.7500000000000000    I4023
    0.2093747300082475    0.0000000000000000    0.2500000000000000    I4024
    0.2093747300082475    0.0000000000000000    0.5833333333333334    I4025
    0.2093747300082475    0.0000000000000000    0.9166666666666666    I4026
    0.2093747300082475    0.3333333333333334    0.2500000000000000    I4027
    0.2093747300082475    0.3333333333333334    0.5833333333333334    I4028
    0.2093747300082475    0.3333333333333334    0.9166666666666666    I4029
    0.2093747300082475    0.6666666666666667    0.2500000000000000    I4030
    0.2093747300082475    0.6666666666666667    0.5833333333333334    I4031
    0.2093747300082475    0.6666666666666667    0.9166666666666666    I4032
    0.5427080633415808    0.0000000000000000    0.2500000000000000    I4033
    0.5427080633415808    0.0000000000000000    0.5833333333333334    I4034
    0.5427080633415808    0.0000000000000000    0.9166666666666666    I4035
    0.5427080633415808    0.3333333333333334    0.2500000000000000    I4036
    0.5427080633415808    0.3333333333333334    0.5833333333333334    I4037
    0.5427080633415808    0.3333333333333334    0.9166666666666666    I4038
    0.5427080633415808    0.6666666666666667    0.2500000000000000    I4039
    0.5427080633415808    0.6666666666666667    0.5833333333333334    I4040
    0.5427080633415808    0.6666666666666667    0.9166666666666666    I4041
    0.8760413966749141    0.0000000000000000    0.2500000000000000    I4042
    0.8760413966749141    0.0000000000000000    0.5833333333333334    I4043
    0.8760413966749141    0.0000000000000000    0.9166666666666666    I4044
    0.8760413966749141    0.3333333333333334    0.2500000000000000    I4045
    0.8760413966749141    0.3333333333333334    0.5833333333333334    I4046
    0.8760413966749141    0.3333333333333334    0.9166666666666666    I4047
    0.8760413966749141    0.6666666666666667    0.2500000000000000    I4048
    0.8760413966749141    0.6666666666666667    0.5833333333333334    I4049
    0.8760413966749141    0.6666666666666667    0.9166666666666666    I4050
    0.2093747300082475    0.1666666666666667    0.0833333333333334    I4051
    0.2093747300082475    0.1666666666666667    0.4166666666666667    I4052
    0.2093747300082475    0.1666666666666667    0.7500000000000000    I4053
    0.2093747300082475    0.5000000000000000    0.0833333333333334    I4054
    0.2093747300082475    0.5000000000000000    0.4166666666666667    I4055
    0.2093747300082475    0.5000000000000000    0.7500000000000000    I4056
    0.2093747300082475    0.8333333333333334    0.0833333333333334    I4057
    0.2093747300082475    0.8333333333333334    0.4166666666666667    I4058
    0.2093747300082475    0.8333333333333334    0.7500000000000000    I4059
    0.5427080633415808    0.1666666666666667    0.0833333333333334    I4060
    0.5427080633415808    0.1666666666666667    0.4166666666666667    I4061
    0.5427080633415808    0.1666666666666667    0.7500000000000000    I4062
    0.5427080633415808    0.5000000000000000    0.0833333333333334    I4063
    0.5427080633415808    0.5000000000000000    0.4166666666666667    I4064
    0.5427080633415808    0.5000000000000000    0.7500000000000000    I4065
    0.5427080633415808    0.8333333333333334    0.0833333333333334    I4066
    0.5427080633415808    0.8333333333333334    0.4166666666666667    I4067
    0.5427080633415808    0.8333333333333334    0.7500000000000000    I4068
    0.8760413966749141    0.1666666666666667    0.0833333333333334    I4069
    0.8760413966749141    0.1666666666666667    0.4166666666666667    I4070
    0.8760413966749141    0.1666666666666667    0.7500000000000000    I4071
    0.8760413966749141    0.5000000000000000    0.0833333333333334    I4072
    0.8760413966749141    0.5000000000000000    0.4166666666666667    I4073
    0.8760413966749141    0.5000000000000000    0.7500000000000000    I4074
    0.8760413966749141    0.8333333333333334    0.0833333333333334    I4075
    0.8760413966749141    0.8333333333333334    0.4166666666666667    I4076
    0.8760413966749141    0.8333333333333334    0.7500000000000000    I4077
    0.2093747300082475    0.1666666666666667    0.2500000000000000    I4078
    0.2093747300082475    0.1666666666666667    0.5833333333333334    I4079
    0.2093747300082475    0.1666666666666667    0.9166666666666666    I4080
    0.2093747300082475    0.5000000000000000    0.2500000000000000    I4081
    0.2093747300082475    0.5000000000000000    0.5833333333333334    I4082
    0.2093747300082475    0.5000000000000000    0.9166666666666666    I4083
    0.2093747300082475    0.8333333333333334    0.2500000000000000    I4084
    0.2093747300082475    0.8333333333333334    0.5833333333333334    I4085
    0.2093747300082475    0.8333333333333334    0.9166666666666666    I4086
    0.5427080633415808    0.1666666666666667    0.2500000000000000    I4087
    0.5427080633415808    0.1666666666666667    0.5833333333333334    I4088
    0.5427080633415808    0.1666666666666667    0.9166666666666666    I4089
    0.5427080633415808    0.5000000000000000    0.2500000000000000    I4090
    0.5427080633415808    0.5000000000000000    0.5833333333333334    I4091
    0.5427080633415808    0.5000000000000000    0.9166666666666666    I4092
    0.5427080633415808    0.8333333333333334    0.2500000000000000    I4093
    0.5427080633415808    0.8333333333333334    0.5833333333333334    I4094
    0.5427080633415808    0.8333333333333334    0.9166666666666666    I4095
    0.8760413966749141    0.1666666666666667    0.2500000000000000    I4096
    0.8760413966749141    0.1666666666666667    0.5833333333333334    I4097
    0.8760413966749141    0.1666666666666667    0.9166666666666666    I4098
    0.8760413966749141    0.5000000000000000    0.2500000000000000    I4099
    0.8760413966749141    0.5000000000000000    0.5833333333333334    I4100
    0.8760413966749141    0.5000000000000000    0.9166666666666666    I4101
    0.8760413966749141    0.8333333333333334    0.2500000000000000    I4102
    0.8760413966749141    0.8333333333333334    0.5833333333333334    I4103
    0.8760413966749141    0.8333333333333334    0.9166666666666666    I4104
    0.0833333333333334    0.0427080633415808    0.0000000000000000    I4105
    0.0833333333333334    0.0427080633415808    0.3333333333333334    I4106
    0.0833333333333334    0.0427080633415808    0.6666666666666667    I4107
    0.0833333333333334    0.3760413966749141    0.0000000000000000    I4108
    0.0833333333333334    0.3760413966749141    0.3333333333333334    I4109
    0.0833333333333334    0.3760413966749141    0.6666666666666667    I4110
    0.0833333333333334    0.7093747300082474    0.0000000000000000    I4111
    0.0833333333333334    0.7093747300082474    0.3333333333333334    I4112
    0.0833333333333334    0.7093747300082474    0.6666666666666667    I4113
    0.4166666666666667    0.0427080633415808    0.0000000000000000    I4114
    0.4166666666666667    0.0427080633415808    0.3333333333333334    I4115
    0.4166666666666667    0.0427080633415808    0.6666666666666667    I4116
    0.4166666666666667    0.3760413966749141    0.0000000000000000    I4117
    0.4166666666666667    0.3760413966749141    0.3333333333333334    I4118
    0.4166666666666667    0.3760413966749141    0.6666666666666667    I4119
    0.4166666666666667    0.7093747300082474    0.0000000000000000    I4120
    0.4166666666666667    0.7093747300082474    0.3333333333333334    I4121
    0.4166666666666667    0.7093747300082474    0.6666666666666667    I4122
    0.7500000000000000    0.0427080633415808    0.0000000000000000    I4123
    0.7500000000000000    0.0427080633415808    0.3333333333333334    I4124
    0.7500000000000000    0.0427080633415808    0.6666666666666667    I4125
    0.7500000000000000    0.3760413966749141    0.0000000000000000    I4126
    0.7500000000000000    0.3760413966749141    0.3333333333333334    I4127
    0.7500000000000000    0.3760413966749141    0.6666666666666667    I4128
    0.7500000000000000    0.7093747300082474    0.0000000000000000    I4129
    0.7500000000000000    0.7093747300082474    0.3333333333333334    I4130
    0.7500000000000000    0.7093747300082474    0.6666666666666667    I4131
    0.0833333333333334    0.0427080633415808    0.1666666666666667    I4132
    0.0833333333333334    0.0427080633415808    0.5000000000000000    I4133
    0.0833333333333334    0.0427080633415808    0.8333333333333334    I4134
    0.0833333333333334    0.3760413966749141    0.1666666666666667    I4135
    0.0833333333333334    0.3760413966749141    0.5000000000000000    I4136
    0.0833333333333334    0.3760413966749141    0.8333333333333334    I4137
    0.0833333333333334    0.7093747300082474    0.1666666666666667    I4138
    0.0833333333333334    0.7093747300082474    0.5000000000000000    I4139
    0.0833333333333334    0.7093747300082474    0.8333333333333334    I4140
    0.4166666666666667    0.0427080633415808    0.1666666666666667    I4141
    0.4166666666666667    0.0427080633415808    0.5000000000000000    I4142
    0.4166666666666667    0.0427080633415808    0.8333333333333334    I4143
    0.4166666666666667    0.3760413966749141    0.1666666666666667    I4144
    0.4166666666666667    0.3760413966749141    0.5000000000000000    I4145
    0.4166666666666667    0.3760413966749141    0.8333333333333334    I4146
    0.4166666666666667    0.7093747300082474    0.1666666666666667    I4147
    0.4166666666666667    0.7093747300082474    0.5000000000000000    I4148
    0.4166666666666667    0.7093747300082474    0.8333333333333334    I4149
    0.7500000000000000    0.0427080633415808    0.1666666666666667    I4150
    0.7500000000000000    0.0427080633415808    0.5000000000000000    I4151
    0.7500000000000000    0.0427080633415808    0.8333333333333334    I4152
    0.7500000000000000    0.3760413966749141    0.1666666666666667    I4153
    0.7500000000000000    0.3760413966749141    0.5000000000000000    I4154
    0.7500000000000000    0.3760413966749141    0.8333333333333334    I4155
    0.7500000000000000    0.7093747300082474    0.1666666666666667    I4156
    0.7500000000000000    0.7093747300082474    0.5000000000000000    I4157
    0.7500000000000000    0.7093747300082474    0.8333333333333334    I4158
    0.0833333333333334    0.2093747300082475    0.0000000000000000    I4159
    0.0833333333333334    0.2093747300082475    0.3333333333333334    I4160
    0.0833333333333334    0.2093747300082475    0.6666666666666667    I4161
    0.0833333333333334    0.5427080633415808    0.0000000000000000    I4162
    0.0833333333333334    0.5427080633415808    0.3333333333333334    I4163
    0.0833333333333334    0.5427080633415808    0.6666666666666667    I4164
    0.0833333333333334    0.8760413966749141    0.0000000000000000    I4165
    0.0833333333333334    0.8760413966749141    0.3333333333333334    I4166
    0.0833333333333334    0.8760413966749141    0.6666666666666667    I4167
    0.4166666666666667    0.2093747300082475    0.0000000000000000    I4168
    0.4166666666666667    0.2093747300082475    0.3333333333333334    I4169
    0.4166666666666667    0.2093747300082475    0.6666666666666667    I4170
    0.4166666666666667    0.5427080633415808    0.0000000000000000    I4171
    0.4166666666666667    0.5427080633415808    0.3333333333333334    I4172
    0.4166666666666667    0.5427080633415808    0.6666666666666667    I4173
    0.4166666666666667    0.8760413966749141    0.0000000000000000    I4174
    0.4166666666666667    0.8760413966749141    0.3333333333333334    I4175
    0.4166666666666667    0.8760413966749141    0.6666666666666667    I4176
    0.7500000000000000    0.2093747300082475    0.0000000000000000    I4177
    0.7500000000000000    0.2093747300082475    0.3333333333333334    I4178
    0.7500000000000000    0.2093747300082475    0.6666666666666667    I4179
    0.7500000000000000    0.5427080633415808    0.0000000000000000    I4180
    0.7500000000000000    0.5427080633415808    0.3333333333333334    I4181
    0.7500000000000000    0.5427080633415808    0.6666666666666667    I4182
    0.7500000000000000    0.8760413966749141    0.0000000000000000    I4183
    0.7500000000000000    0.8760413966749141    0.3333333333333334    I4184
    0.7500000000000000    0.8760413966749141    0.6666666666666667    I4185
    0.0833333333333334    0.2093747300082475    0.1666666666666667    I4186
    0.0833333333333334    0.2093747300082475    0.5000000000000000    I4187
    0.0833333333333334    0.2093747300082475    0.8333333333333334    I4188
    0.0833333333333334    0.5427080633415808    0.1666666666666667    I4189
    0.0833333333333334    0.5427080633415808    0.5000000000000000    I4190
    0.0833333333333334    0.5427080633415808    0.8333333333333334    I4191
    0.0833333333333334    0.8760413966749141    0.1666666666666667    I4192
    0.0833333333333334    0.8760413966749141    0.5000000000000000    I4193
    0.0833333333333334    0.8760413966749141    0.8333333333333334    I4194
    0.4166666666666667    0.2093747300082475    0.1666666666666667    I4195
    0.4166666666666667    0.2093747300082475    0.5000000000000000    I4196
    0.4166666666666667    0.2093747300082475    0.8333333333333334    I4197
    0.4166666666666667    0.5427080633415808    0.1666666666666667    I4198
    0.4166666666666667    0.5427080633415808    0.5000000000000000    I4199
    0.4166666666666667    0.5427080633415808    0.8333333333333334    I4200
    0.4166666666666667    0.8760413966749141    0.1666666666666667    I4201
    0.4166666666666667    0.8760413966749141    0.5000000000000000    I4202
    0.4166666666666667    0.8760413966749141    0.8333333333333334    I4203
    0.7500000000000000    0.2093747300082475    0.1666666666666667    I4204
    0.7500000000000000    0.2093747300082475    0.5000000000000000    I4205
    0.7500000000000000    0.2093747300082475    0.8333333333333334    I4206
    0.7500000000000000    0.5427080633415808    0.1666666666666667    I4207
    0.7500000000000000    0.5427080633415808    0.5000000000000000    I4208
    0.7500000000000000    0.5427080633415808    0.8333333333333334    I4209
    0.7500000000000000    0.8760413966749141    0.1666666666666667    I4210
    0.7500000000000000    0.8760413966749141    0.5000000000000000    I4211
    0.7500000000000000    0.8760413966749141    0.8333333333333334    I4212
    0.2500000000000000    0.0427080633415808    0.0000000000000000    I4213
    0.2500000000000000    0.0427080633415808    0.3333333333333334    I4214
    0.2500000000000000    0.0427080633415808    0.6666666666666667    I4215
    0.2500000000000000    0.3760413966749141    0.0000000000000000    I4216
    0.2500000000000000    0.3760413966749141    0.3333333333333334    I4217
    0.2500000000000000    0.3760413966749141    0.6666666666666667    I4218
    0.2500000000000000    0.7093747300082474    0.0000000000000000    I4219
    0.2500000000000000    0.7093747300082474    0.3333333333333334    I4220
    0.2500000000000000    0.7093747300082474    0.6666666666666667    I4221
    0.5833333333333334    0.0427080633415808    0.0000000000000000    I4222
    0.5833333333333334    0.0427080633415808    0.3333333333333334    I4223
    0.5833333333333334    0.0427080633415808    0.6666666666666667    I4224
    0.5833333333333334    0.3760413966749141    0.0000000000000000    I4225
    0.5833333333333334    0.3760413966749141    0.3333333333333334    I4226
    0.5833333333333334    0.3760413966749141    0.6666666666666667    I4227
    0.5833333333333334    0.7093747300082474    0.0000000000000000    I4228
    0.5833333333333334    0.7093747300082474    0.3333333333333334    I4229
    0.5833333333333334    0.7093747300082474    0.6666666666666667    I4230
    0.9166666666666666    0.0427080633415808    0.0000000000000000    I4231
    0.9166666666666666    0.0427080633415808    0.3333333333333334    I4232
    0.9166666666666666    0.0427080633415808    0.6666666666666667    I4233
    0.9166666666666666    0.3760413966749141    0.0000000000000000    I4234
    0.9166666666666666    0.3760413966749141    0.3333333333333334    I4235
    0.9166666666666666    0.3760413966749141    0.6666666666666667    I4236
    0.9166666666666666    0.7093747300082474    0.0000000000000000    I4237
    0.9166666666666666    0.7093747300082474    0.3333333333333334    I4238
    0.9166666666666666    0.7093747300082474    0.6666666666666667    I4239
    0.2500000000000000    0.0427080633415808    0.1666666666666667    I4240
    0.2500000000000000    0.0427080633415808    0.5000000000000000    I4241
    0.2500000000000000    0.0427080633415808    0.8333333333333334    I4242
    0.2500000000000000    0.3760413966749141    0.1666666666666667    I4243
    0.2500000000000000    0.3760413966749141    0.5000000000000000    I4244
    0.2500000000000000    0.3760413966749141    0.8333333333333334    I4245
    0.2500000000000000    0.7093747300082474    0.1666666666666667    I4246
    0.2500000000000000    0.7093747300082474    0.5000000000000000    I4247
    0.2500000000000000    0.7093747300082474    0.8333333333333334    I4248
    0.5833333333333334    0.0427080633415808    0.1666666666666667    I4249
    0.5833333333333334    0.0427080633415808    0.5000000000000000    I4250
    0.5833333333333334    0.0427080633415808    0.8333333333333334    I4251
    0.5833333333333334    0.3760413966749141    0.1666666666666667    I4252
    0.5833333333333334    0.3760413966749141    0.5000000000000000    I4253
    0.5833333333333334    0.3760413966749141    0.8333333333333334    I4254
    0.5833333333333334    0.7093747300082474    0.1666666666666667    I4255
    0.5833333333333334    0.7093747300082474    0.5000000000000000    I4256
    0.5833333333333334    0.7093747300082474    0.8333333333333334    I4257
    0.9166666666666666    0.0427080633415808    0.1666666666666667    I4258
    0.9166666666666666    0.0427080633415808    0.5000000000000000    I4259
    0.9166666666666666    0.0427080633415808    0.8333333333333334    I4260
    0.9166666666666666    0.3760413966749141    0.1666666666666667    I4261
    0.9166666666666666    0.3760413966749141    0.5000000000000000    I4262
    0.9166666666666666    0.3760413966749141    0.8333333333333334    I4263
    0.9166666666666666    0.7093747300082474    0.1666666666666667    I4264
    0.9166666666666666    0.7093747300082474    0.5000000000000000    I4265
    0.9166666666666666    0.7093747300082474    0.8333333333333334    I4266
    0.2500000000000000    0.2093747300082475    0.0000000000000000    I4267
    0.2500000000000000    0.2093747300082475    0.3333333333333334    I4268
    0.2500000000000000    0.2093747300082475    0.6666666666666667    I4269
    0.2500000000000000    0.5427080633415808    0.0000000000000000    I4270
    0.2500000000000000    0.5427080633415808    0.3333333333333334    I4271
    0.2500000000000000    0.5427080633415808    0.6666666666666667    I4272
    0.2500000000000000    0.8760413966749141    0.0000000000000000    I4273
    0.2500000000000000    0.8760413966749141    0.3333333333333334    I4274
    0.2500000000000000    0.8760413966749141    0.6666666666666667    I4275
    0.5833333333333334    0.2093747300082475    0.0000000000000000    I4276
    0.5833333333333334    0.2093747300082475    0.3333333333333334    I4277
    0.5833333333333334    0.2093747300082475    0.6666666666666667    I4278
    0.5833333333333334    0.5427080633415808    0.0000000000000000    I4279
    0.5833333333333334    0.5427080633415808    0.3333333333333334    I4280
    0.5833333333333334    0.5427080633415808    0.6666666666666667    I4281
    0.5833333333333334    0.8760413966749141    0.0000000000000000    I4282
    0.5833333333333334    0.8760413966749141    0.3333333333333334    I4283
    0.5833333333333334    0.8760413966749141    0.6666666666666667    I4284
    0.9166666666666666    0.2093747300082475    0.0000000000000000    I4285
    0.9166666666666666    0.2093747300082475    0.3333333333333334    I4286
    0.9166666666666666    0.2093747300082475    0.6666666666666667    I4287
    0.9166666666666666    0.5427080633415808    0.0000000000000000    I4288
    0.9166666666666666    0.5427080633415808    0.3333333333333334    I4289
    0.9166666666666666    0.5427080633415808    0.6666666666666667    I4290
    0.9166666666666666    0.8760413966749141    0.0000000000000000    I4291
    0.9166666666666666    0.8760413966749141    0.3333333333333334    I4292
    0.9166666666666666    0.8760413966749141    0.6666666666666667    I4293
    0.2500000000000000    0.2093747300082475    0.1666666666666667    I4294
    0.2500000000000000    0.2093747300082475    0.5000000000000000    I4295
    0.2500000000000000    0.2093747300082475    0.8333333333333334    I4296
    0.2500000000000000    0.5427080633415808    0.1666666666666667    I4297
    0.2500000000000000    0.5427080633415808    0.5000000000000000    I4298
    0.2500000000000000    0.5427080633415808    0.8333333333333334    I4299
    0.2500000000000000    0.8760413966749141    0.1666666666666667    I4300
    0.2500000000000000    0.8760413966749141    0.5000000000000000    I4301
    0.2500000000000000    0.8760413966749141    0.8333333333333334    I4302
    0.5833333333333334    0.2093747300082475    0.1666666666666667    I4303
    0.5833333333333334    0.2093747300082475    0.5000000000000000    I4304
    0.5833333333333334    0.2093747300082475    0.8333333333333334    I4305
    0.5833333333333334    0.5427080633415808    0.1666666666666667    I4306
    0.5833333333333334    0.5427080633415808    0.5000000000000000    I4307
    0.5833333333333334    0.5427080633415808    0.8333333333333334    I4308
    0.5833333333333334    0.8760413966749141    0.1666666666666667    I4309
    0.5833333333333334    0.8760413966749141    0.5000000000000000    I4310
    0.5833333333333334    0.8760413966749141    0.8333333333333334    I4311
    0.9166666666666666    0.2093747300082475    0.1666666666666667    I4312
    0.9166666666666666    0.2093747300082475    0.5000000000000000    I4313
    0.9166666666666666    0.2093747300082475    0.8333333333333334    I4314
    0.9166666666666666    0.5427080633415808    0.1666666666666667    I4315
    0.9166666666666666    0.5427080633415808    0.5000000000000000    I4316
    0.9166666666666666    0.5427080633415808    0.8333333333333334    I4317
    0.9166666666666666    0.8760413966749141    0.1666666666666667    I4318
    0.9166666666666666    0.8760413966749141    0.5000000000000000    I4319
    0.9166666666666666    0.8760413966749141    0.8333333333333334    I4320
    0.0833333333333334    0.1239586033250859    0.0000000000000000    I4321
    0.0833333333333334    0.1239586033250859    0.3333333333333334    I4322
    0.0833333333333334    0.1239586033250859    0.6666666666666667    I4323
    0.0833333333333334    0.4572919366584193    0.0000000000000000    I4324
    0.0833333333333334    0.4572919366584193    0.3333333333333334    I4325
    0.0833333333333334    0.4572919366584193    0.6666666666666667    I4326
    0.0833333333333334    0.7906252699917526    0.0000000000000000    I4327
    0.0833333333333334    0.7906252699917526    0.3333333333333334    I4328
    0.0833333333333334    0.7906252699917526    0.6666666666666667    I4329
    0.4166666666666667    0.1239586033250859    0.0000000000000000    I4330
    0.4166666666666667    0.1239586033250859    0.3333333333333334    I4331
    0.4166666666666667    0.1239586033250859    0.6666666666666667    I4332
    0.4166666666666667    0.4572919366584193    0.0000000000000000    I4333
    0.4166666666666667    0.4572919366584193    0.3333333333333334    I4334
    0.4166666666666667    0.4572919366584193    0.6666666666666667    I4335
    0.4166666666666667    0.7906252699917526    0.0000000000000000    I4336
    0.4166666666666667    0.7906252699917526    0.3333333333333334    I4337
    0.4166666666666667    0.7906252699917526    0.6666666666666667    I4338
    0.7500000000000000    0.1239586033250859    0.0000000000000000    I4339
    0.7500000000000000    0.1239586033250859    0.3333333333333334    I4340
    0.7500000000000000    0.1239586033250859    0.6666666666666667    I4341
    0.7500000000000000    0.4572919366584193    0.0000000000000000    I4342
    0.7500000000000000    0.4572919366584193    0.3333333333333334    I4343
    0.7500000000000000    0.4572919366584193    0.6666666666666667    I4344
    0.7500000000000000    0.7906252699917526    0.0000000000000000    I4345
    0.7500000000000000    0.7906252699917526    0.3333333333333334    I4346
    0.7500000000000000    0.7906252699917526    0.6666666666666667    I4347
    0.0833333333333334    0.1239586033250859    0.1666666666666667    I4348
    0.0833333333333334    0.1239586033250859    0.5000000000000000    I4349
    0.0833333333333334    0.1239586033250859    0.8333333333333334    I4350
    0.0833333333333334    0.4572919366584193    0.1666666666666667    I4351
    0.0833333333333334    0.4572919366584193    0.5000000000000000    I4352
    0.0833333333333334    0.4572919366584193    0.8333333333333334    I4353
    0.0833333333333334    0.7906252699917526    0.1666666666666667    I4354
    0.0833333333333334    0.7906252699917526    0.5000000000000000    I4355
    0.0833333333333334    0.7906252699917526    0.8333333333333334    I4356
    0.4166666666666667    0.1239586033250859    0.1666666666666667    I4357
    0.4166666666666667    0.1239586033250859    0.5000000000000000    I4358
    0.4166666666666667    0.1239586033250859    0.8333333333333334    I4359
    0.4166666666666667    0.4572919366584193    0.1666666666666667    I4360
    0.4166666666666667    0.4572919366584193    0.5000000000000000    I4361
    0.4166666666666667    0.4572919366584193    0.8333333333333334    I4362
    0.4166666666666667    0.7906252699917526    0.1666666666666667    I4363
    0.4166666666666667    0.7906252699917526    0.5000000000000000    I4364
    0.4166666666666667    0.7906252699917526    0.8333333333333334    I4365
    0.7500000000000000    0.1239586033250859    0.1666666666666667    I4366
    0.7500000000000000    0.1239586033250859    0.5000000000000000    I4367
    0.7500000000000000    0.1239586033250859    0.8333333333333334    I4368
    0.7500000000000000    0.4572919366584193    0.1666666666666667    I4369
    0.7500000000000000    0.4572919366584193    0.5000000000000000    I4370
    0.7500000000000000    0.4572919366584193    0.8333333333333334    I4371
    0.7500000000000000    0.7906252699917526    0.1666666666666667    I4372
    0.7500000000000000    0.7906252699917526    0.5000000000000000    I4373
    0.7500000000000000    0.7906252699917526    0.8333333333333334    I4374
    0.0833333333333334    0.2906252699917526    0.0000000000000000    I4375
    0.0833333333333334    0.2906252699917526    0.3333333333333334    I4376
    0.0833333333333334    0.2906252699917526    0.6666666666666667    I4377
    0.0833333333333334    0.6239586033250859    0.0000000000000000    I4378
    0.0833333333333334    0.6239586033250859    0.3333333333333334    I4379
    0.0833333333333334    0.6239586033250859    0.6666666666666667    I4380
    0.0833333333333334    0.9572919366584193    0.0000000000000000    I4381
    0.0833333333333334    0.9572919366584193    0.3333333333333334    I4382
    0.0833333333333334    0.9572919366584193    0.6666666666666667    I4383
    0.4166666666666667    0.2906252699917526    0.0000000000000000    I4384
    0.4166666666666667    0.2906252699917526    0.3333333333333334    I4385
    0.4166666666666667    0.2906252699917526    0.6666666666666667    I4386
    0.4166666666666667    0.6239586033250859    0.0000000000000000    I4387
    0.4166666666666667    0.6239586033250859    0.3333333333333334    I4388
    0.4166666666666667    0.6239586033250859    0.6666666666666667    I4389
    0.4166666666666667    0.9572919366584193    0.0000000000000000    I4390
    0.4166666666666667    0.9572919366584193    0.3333333333333334    I4391
    0.4166666666666667    0.9572919366584193    0.6666666666666667    I4392
    0.7500000000000000    0.2906252699917526    0.0000000000000000    I4393
    0.7500000000000000    0.2906252699917526    0.3333333333333334    I4394
    0.7500000000000000    0.2906252699917526    0.6666666666666667    I4395
    0.7500000000000000    0.6239586033250859    0.0000000000000000    I4396
    0.7500000000000000    0.6239586033250859    0.3333333333333334    I4397
    0.7500000000000000    0.6239586033250859    0.6666666666666667    I4398
    0.7500000000000000    0.9572919366584193    0.0000000000000000    I4399
    0.7500000000000000    0.9572919366584193    0.3333333333333334    I4400
    0.7500000000000000    0.9572919366584193    0.6666666666666667    I4401
    0.0833333333333334    0.2906252699917526    0.1666666666666667    I4402
    0.0833333333333334    0.2906252699917526    0.5000000000000000    I4403
    0.0833333333333334    0.2906252699917526    0.8333333333333334    I4404
    0.0833333333333334    0.6239586033250859    0.1666666666666667    I4405
    0.0833333333333334    0.6239586033250859    0.5000000000000000    I4406
    0.0833333333333334    0.6239586033250859    0.8333333333333334    I4407
    0.0833333333333334    0.9572919366584193    0.1666666666666667    I4408
    0.0833333333333334    0.9572919366584193    0.5000000000000000    I4409
    0.0833333333333334    0.9572919366584193    0.8333333333333334    I4410
    0.4166666666666667    0.2906252699917526    0.1666666666666667    I4411
    0.4166666666666667    0.2906252699917526    0.5000000000000000    I4412
    0.4166666666666667    0.2906252699917526    0.8333333333333334    I4413
    0.4166666666666667    0.6239586033250859    0.1666666666666667    I4414
    0.4166666666666667    0.6239586033250859    0.5000000000000000    I4415
    0.4166666666666667    0.6239586033250859    0.8333333333333334    I4416
    0.4166666666666667    0.9572919366584193    0.1666666666666667    I4417
    0.4166666666666667    0.9572919366584193    0.5000000000000000    I4418
    0.4166666666666667    0.9572919366584193    0.8333333333333334    I4419
    0.7500000000000000    0.2906252699917526    0.1666666666666667    I4420
    0.7500000000000000    0.2906252699917526    0.5000000000000000    I4421
    0.7500000000000000    0.2906252699917526    0.8333333333333334    I4422
    0.7500000000000000    0.6239586033250859    0.1666666666666667    I4423
    0.7500000000000000    0.6239586033250859    0.5000000000000000    I4424
    0.7500000000000000    0.6239586033250859    0.8333333333333334    I4425
    0.7500000000000000    0.9572919366584193    0.1666666666666667    I4426
    0.7500000000000000    0.9572919366584193    0.5000000000000000    I4427
    0.7500000000000000    0.9572919366584193    0.8333333333333334    I4428
    0.2500000000000000    0.1239586033250859    0.0000000000000000    I4429
    0.2500000000000000    0.1239586033250859    0.3333333333333334    I4430
    0.2500000000000000    0.1239586033250859    0.6666666666666667    I4431
    0.2500000000000000    0.4572919366584193    0.0000000000000000    I4432
    0.2500000000000000    0.4572919366584193    0.3333333333333334    I4433
    0.2500000000000000    0.4572919366584193    0.6666666666666667    I4434
    0.2500000000000000    0.7906252699917526    0.0000000000000000    I4435
    0.2500000000000000    0.7906252699917526    0.3333333333333334    I4436
    0.2500000000000000    0.7906252699917526    0.6666666666666667    I4437
    0.5833333333333334    0.1239586033250859    0.0000000000000000    I4438
    0.5833333333333334    0.1239586033250859    0.3333333333333334    I4439
    0.5833333333333334    0.1239586033250859    0.6666666666666667    I4440
    0.5833333333333334    0.4572919366584193    0.0000000000000000    I4441
    0.5833333333333334    0.4572919366584193    0.3333333333333334    I4442
    0.5833333333333334    0.4572919366584193    0.6666666666666667    I4443
    0.5833333333333334    0.7906252699917526    0.0000000000000000    I4444
    0.5833333333333334    0.7906252699917526    0.3333333333333334    I4445
    0.5833333333333334    0.7906252699917526    0.6666666666666667    I4446
    0.9166666666666666    0.1239586033250859    0.0000000000000000    I4447
    0.9166666666666666    0.1239586033250859    0.3333333333333334    I4448
    0.9166666666666666    0.1239586033250859    0.6666666666666667    I4449
    0.9166666666666666    0.4572919366584193    0.0000000000000000    I4450
    0.9166666666666666    0.4572919366584193    0.3333333333333334    I4451
    0.9166666666666666    0.4572919366584193    0.6666666666666667    I4452
    0.9166666666666666    0.7906252699917526    0.0000000000000000    I4453
    0.9166666666666666    0.7906252699917526    0.3333333333333334    I4454
    0.9166666666666666    0.7906252699917526    0.6666666666666667    I4455
    0.2500000000000000    0.1239586033250859    0.1666666666666667    I4456
    0.2500000000000000    0.1239586033250859    0.5000000000000000    I4457
    0.2500000000000000    0.1239586033250859    0.8333333333333334    I4458
    0.2500000000000000    0.4572919366584193    0.1666666666666667    I4459
    0.2500000000000000    0.4572919366584193    0.5000000000000000    I4460
    0.2500000000000000    0.4572919366584193    0.8333333333333334    I4461
    0.2500000000000000    0.7906252699917526    0.1666666666666667    I4462
    0.2500000000000000    0.7906252699917526    0.5000000000000000    I4463
    0.2500000000000000    0.7906252699917526    0.8333333333333334    I4464
    0.5833333333333334    0.1239586033250859    0.1666666666666667    I4465
    0.5833333333333334    0.1239586033250859    0.5000000000000000    I4466
    0.5833333333333334    0.1239586033250859    0.8333333333333334    I4467
    0.5833333333333334    0.4572919366584193    0.1666666666666667    I4468
    0.5833333333333334    0.4572919366584193    0.5000000000000000    I4469
    0.5833333333333334    0.4572919366584193    0.8333333333333334    I4470
    0.5833333333333334    0.7906252699917526    0.1666666666666667    I4471
    0.5833333333333334    0.7906252699917526    0.5000000000000000    I4472
    0.5833333333333334    0.7906252699917526    0.8333333333333334    I4473
    0.9166666666666666    0.1239586033250859    0.1666666666666667    I4474
    0.9166666666666666    0.1239586033250859    0.5000000000000000    I4475
    0.9166666666666666    0.1239586033250859    0.8333333333333334    I4476
    0.9166666666666666    0.4572919366584193    0.1666666666666667    I4477
    0.9166666666666666    0.4572919366584193    0.5000000000000000    I4478
    0.9166666666666666    0.4572919366584193    0.8333333333333334    I4479
    0.9166666666666666    0.7906252699917526    0.1666666666666667    I4480
    0.9166666666666666    0.7906252699917526    0.5000000000000000    I4481
    0.9166666666666666    0.7906252699917526    0.8333333333333334    I4482
    0.2500000000000000    0.2906252699917526    0.0000000000000000    I4483
    0.2500000000000000    0.2906252699917526    0.3333333333333334    I4484
    0.2500000000000000    0.2906252699917526    0.6666666666666667    I4485
    0.2500000000000000    0.6239586033250859    0.0000000000000000    I4486
    0.2500000000000000    0.6239586033250859    0.3333333333333334    I4487
    0.2500000000000000    0.6239586033250859    0.6666666666666667    I4488
    0.2500000000000000    0.9572919366584193    0.0000000000000000    I4489
    0.2500000000000000    0.9572919366584193    0.3333333333333334    I4490
    0.2500000000000000    0.9572919366584193    0.6666666666666667    I4491
    0.5833333333333334    0.2906252699917526    0.0000000000000000    I4492
    0.5833333333333334    0.2906252699917526    0.3333333333333334    I4493
    0.5833333333333334    0.2906252699917526    0.6666666666666667    I4494
    0.5833333333333334    0.6239586033250859    0.0000000000000000    I4495
    0.5833333333333334    0.6239586033250859    0.3333333333333334    I4496
    0.5833333333333334    0.6239586033250859    0.6666666666666667    I4497
    0.5833333333333334    0.9572919366584193    0.0000000000000000    I4498
    0.5833333333333334    0.9572919366584193    0.3333333333333334    I4499
    0.5833333333333334    0.9572919366584193    0.6666666666666667    I4500
    0.9166666666666666    0.2906252699917526    0.0000000000000000    I4501
    0.9166666666666666    0.2906252699917526    0.3333333333333334    I4502
    0.9166666666666666    0.2906252699917526    0.6666666666666667    I4503
    0.9166666666666666    0.6239586033250859    0.0000000000000000    I4504
    0.9166666666666666    0.6239586033250859    0.3333333333333334    I4505
    0.9166666666666666    0.6239586033250859    0.6666666666666667    I4506
    0.9166666666666666    0.9572919366584193    0.0000000000000000    I4507
    0.9166666666666666    0.9572919366584193    0.3333333333333334    I4508
    0.9166666666666666    0.9572919366584193    0.6666666666666667    I4509
    0.2500000000000000    0.2906252699917526    0.1666666666666667    I4510
    0.2500000000000000    0.2906252699917526    0.5000000000000000    I4511
    0.2500000000000000    0.2906252699917526    0.8333333333333334    I4512
    0.2500000000000000    0.6239586033250859    0.1666666666666667    I4513
    0.2500000000000000    0.6239586033250859    0.5000000000000000    I4514
    0.2500000000000000    0.6239586033250859    0.8333333333333334    I4515
    0.2500000000000000    0.9572919366584193    0.1666666666666667    I4516
    0.2500000000000000    0.9572919366584193    0.5000000000000000    I4517
    0.2500000000000000    0.9572919366584193    0.8333333333333334    I4518
    0.5833333333333334    0.2906252699917526    0.1666666666666667    I4519
    0.5833333333333334    0.2906252699917526    0.5000000000000000    I4520
    0.5833333333333334    0.2906252699917526    0.8333333333333334    I4521
    0.5833333333333334    0.6239586033250859    0.1666666666666667    I4522
    0.5833333333333334    0.6239586033250859    0.5000000000000000    I4523
    0.5833333333333334    0.6239586033250859    0.8333333333333334    I4524
    0.5833333333333334    0.9572919366584193    0.1666666666666667    I4525
    0.5833333333333334    0.9572919366584193    0.5000000000000000    I4526
    0.5833333333333334    0.9572919366584193    0.8333333333333334    I4527
    0.9166666666666666    0.2906252699917526    0.1666666666666667    I4528
    0.9166666666666666    0.2906252699917526    0.5000000000000000    I4529
    0.9166666666666666    0.2906252699917526    0.8333333333333334    I4530
    0.9166666666666666    0.6239586033250859    0.1666666666666667    I4531
    0.9166666666666666    0.6239586033250859    0.5000000000000000    I4532
    0.9166666666666666    0.6239586033250859    0.8333333333333334    I4533
    0.9166666666666666    0.9572919366584193    0.1666666666666667    I4534
    0.9166666666666666    0.9572919366584193    0.5000000000000000    I4535
    0.9166666666666666    0.9572919366584193    0.8333333333333334    I4536
    0.0406252699917526    0.0000000000000000    0.0000000000000000    I4537
    0.0406252699917526    0.0000000000000000    0.3333333333333334    I4538
    0.0406252699917526    0.0000000000000000    0.6666666666666667    I4539
    0.0406252699917526    0.3333333333333334    0.0000000000000000    I4540
    0.0406252699917526    0.3333333333333334    0.3333333333333334    I4541
    0.0406252699917526    0.3333333333333334    0.6666666666666667    I4542
    0.0406252699917526    0.6666666666666667    0.0000000000000000    I4543
    0.0406252699917526    0.6666666666666667    0.3333333333333334    I4544
    0.0406252699917526    0.6666666666666667    0.6666666666666667    I4545
    0.3739586033250859    0.0000000000000000    0.0000000000000000    I4546
    0.3739586033250859    0.0000000000000000    0.3333333333333334    I4547
    0.3739586033250859    0.0000000000000000    0.6666666666666667    I4548
    0.3739586033250859    0.3333333333333334    0.0000000000000000    I4549
    0.3739586033250859    0.3333333333333334    0.3333333333333334    I4550
    0.3739586033250859    0.3333333333333334    0.6666666666666667    I4551
    0.3739586033250859    0.6666666666666667    0.0000000000000000    I4552
    0.3739586033250859    0.6666666666666667    0.3333333333333334    I4553
    0.3739586033250859    0.6666666666666667    0.6666666666666667    I4554
    0.7072919366584193    0.0000000000000000    0.0000000000000000    I4555
    0.7072919366584193    0.0000000000000000    0.3333333333333334    I4556
    0.7072919366584193    0.0000000000000000    0.6666666666666667    I4557
    0.7072919366584193    0.3333333333333334    0.0000000000000000    I4558
    0.7072919366584193    0.3333333333333334    0.3333333333333334    I4559
    0.7072919366584193    0.3333333333333334    0.6666666666666667    I4560
    0.7072919366584193    0.6666666666666667    0.0000000000000000    I4561
    0.7072919366584193    0.6666666666666667    0.3333333333333334    I4562
    0.7072919366584193    0.6666666666666667    0.6666666666666667    I4563
    0.0406252699917526    0.0000000000000000    0.1666666666666667    I4564
    0.0406252699917526    0.0000000000000000    0.5000000000000000    I4565
    0.0406252699917526    0.0000000000000000    0.8333333333333334    I4566
    0.0406252699917526    0.3333333333333334    0.1666666666666667    I4567
    0.0406252699917526    0.3333333333333334    0.5000000000000000    I4568
    0.0406252699917526    0.3333333333333334    0.8333333333333334    I4569
    0.0406252699917526    0.6666666666666667    0.1666666666666667    I4570
    0.0406252699917526    0.6666666666666667    0.5000000000000000    I4571
    0.0406252699917526    0.6666666666666667    0.8333333333333334    I4572
    0.3739586033250859    0.0000000000000000    0.1666666666666667    I4573
    0.3739586033250859    0.0000000000000000    0.5000000000000000    I4574
    0.3739586033250859    0.0000000000000000    0.8333333333333334    I4575
    0.3739586033250859    0.3333333333333334    0.1666666666666667    I4576
    0.3739586033250859    0.3333333333333334    0.5000000000000000    I4577
    0.3739586033250859    0.3333333333333334    0.8333333333333334    I4578
    0.3739586033250859    0.6666666666666667    0.1666666666666667    I4579
    0.3739586033250859    0.6666666666666667    0.5000000000000000    I4580
    0.3739586033250859    0.6666666666666667    0.8333333333333334    I4581
    0.7072919366584193    0.0000000000000000    0.1666666666666667    I4582
    0.7072919366584193    0.0000000000000000    0.5000000000000000    I4583
    0.7072919366584193    0.0000000000000000    0.8333333333333334    I4584
    0.7072919366584193    0.3333333333333334    0.1666666666666667    I4585
    0.7072919366584193    0.3333333333333334    0.5000000000000000    I4586
    0.7072919366584193    0.3333333333333334    0.8333333333333334    I4587
    0.7072919366584193    0.6666666666666667    0.1666666666666667    I4588
    0.7072919366584193    0.6666666666666667    0.5000000000000000    I4589
    0.7072919366584193    0.6666666666666667    0.8333333333333334    I4590
    0.0406252699917526    0.1666666666666667    0.0000000000000000    I4591
    0.0406252699917526    0.1666666666666667    0.3333333333333334    I4592
    0.0406252699917526    0.1666666666666667    0.6666666666666667    I4593
    0.0406252699917526    0.5000000000000000    0.0000000000000000    I4594
    0.0406252699917526    0.5000000000000000    0.3333333333333334    I4595
    0.0406252699917526    0.5000000000000000    0.6666666666666667    I4596
    0.0406252699917526    0.8333333333333334    0.0000000000000000    I4597
    0.0406252699917526    0.8333333333333334    0.3333333333333334    I4598
    0.0406252699917526    0.8333333333333334    0.6666666666666667    I4599
    0.3739586033250859    0.1666666666666667    0.0000000000000000    I4600
    0.3739586033250859    0.1666666666666667    0.3333333333333334    I4601
    0.3739586033250859    0.1666666666666667    0.6666666666666667    I4602
    0.3739586033250859    0.5000000000000000    0.0000000000000000    I4603
    0.3739586033250859    0.5000000000000000    0.3333333333333334    I4604
    0.3739586033250859    0.5000000000000000    0.6666666666666667    I4605
    0.3739586033250859    0.8333333333333334    0.0000000000000000    I4606
    0.3739586033250859    0.8333333333333334    0.3333333333333334    I4607
    0.3739586033250859    0.8333333333333334    0.6666666666666667    I4608
    0.7072919366584193    0.1666666666666667    0.0000000000000000    I4609
    0.7072919366584193    0.1666666666666667    0.3333333333333334    I4610
    0.7072919366584193    0.1666666666666667    0.6666666666666667    I4611
    0.7072919366584193    0.5000000000000000    0.0000000000000000    I4612
    0.7072919366584193    0.5000000000000000    0.3333333333333334    I4613
    0.7072919366584193    0.5000000000000000    0.6666666666666667    I4614
    0.7072919366584193    0.8333333333333334    0.0000000000000000    I4615
    0.7072919366584193    0.8333333333333334    0.3333333333333334    I4616
    0.7072919366584193    0.8333333333333334    0.6666666666666667    I4617
    0.0406252699917526    0.1666666666666667    0.1666666666666667    I4618
    0.0406252699917526    0.1666666666666667    0.5000000000000000    I4619
    0.0406252699917526    0.1666666666666667    0.8333333333333334    I4620
    0.0406252699917526    0.5000000000000000    0.1666666666666667    I4621
    0.0406252699917526    0.5000000000000000    0.5000000000000000    I4622
    0.0406252699917526    0.5000000000000000    0.8333333333333334    I4623
    0.0406252699917526    0.8333333333333334    0.1666666666666667    I4624
    0.0406252699917526    0.8333333333333334    0.5000000000000000    I4625
    0.0406252699917526    0.8333333333333334    0.8333333333333334    I4626
    0.3739586033250859    0.1666666666666667    0.1666666666666667    I4627
    0.3739586033250859    0.1666666666666667    0.5000000000000000    I4628
    0.3739586033250859    0.1666666666666667    0.8333333333333334    I4629
    0.3739586033250859    0.5000000000000000    0.1666666666666667    I4630
    0.3739586033250859    0.5000000000000000    0.5000000000000000    I4631
    0.3739586033250859    0.5000000000000000    0.8333333333333334    I4632
    0.3739586033250859    0.8333333333333334    0.1666666666666667    I4633
    0.3739586033250859    0.8333333333333334    0.5000000000000000    I4634
    0.3739586033250859    0.8333333333333334    0.8333333333333334    I4635
    0.7072919366584193    0.1666666666666667    0.1666666666666667    I4636
    0.7072919366584193    0.1666666666666667    0.5000000000000000    I4637
    0.7072919366584193    0.1666666666666667    0.8333333333333334    I4638
    0.7072919366584193    0.5000000000000000    0.1666666666666667    I4639
    0.7072919366584193    0.5000000000000000    0.5000000000000000    I4640
    0.7072919366584193    0.5000000000000000    0.8333333333333334    I4641
    0.7072919366584193    0.8333333333333334    0.1666666666666667    I4642
    0.7072919366584193    0.8333333333333334    0.5000000000000000    I4643
    0.7072919366584193    0.8333333333333334    0.8333333333333334    I4644
    0.2072919366584193    0.0000000000000000    0.0000000000000000    I4645
    0.2072919366584193    0.0000000000000000    0.3333333333333334    I4646
    0.2072919366584193    0.0000000000000000    0.6666666666666667    I4647
    0.2072919366584193    0.3333333333333334    0.0000000000000000    I4648
    0.2072919366584193    0.3333333333333334    0.3333333333333334    I4649
    0.2072919366584193    0.3333333333333334    0.6666666666666667    I4650
    0.2072919366584193    0.6666666666666667    0.0000000000000000    I4651
    0.2072919366584193    0.6666666666666667    0.3333333333333334    I4652
    0.2072919366584193    0.6666666666666667    0.6666666666666667    I4653
    0.5406252699917526    0.0000000000000000    0.0000000000000000    I4654
    0.5406252699917526    0.0000000000000000    0.3333333333333334    I4655
    0.5406252699917526    0.0000000000000000    0.6666666666666667    I4656
    0.5406252699917526    0.3333333333333334    0.0000000000000000    I4657
    0.5406252699917526    0.3333333333333334    0.3333333333333334    I4658
    0.5406252699917526    0.3333333333333334    0.6666666666666667    I4659
    0.5406252699917526    0.6666666666666667    0.0000000000000000    I4660
    0.5406252699917526    0.6666666666666667    0.3333333333333334    I4661
    0.5406252699917526    0.6666666666666667    0.6666666666666667    I4662
    0.8739586033250859    0.0000000000000000    0.0000000000000000    I4663
    0.8739586033250859    0.0000000000000000    0.3333333333333334    I4664
    0.8739586033250859    0.0000000000000000    0.6666666666666667    I4665
    0.8739586033250859    0.3333333333333334    0.0000000000000000    I4666
    0.8739586033250859    0.3333333333333334    0.3333333333333334    I4667
    0.8739586033250859    0.3333333333333334    0.6666666666666667    I4668
    0.8739586033250859    0.6666666666666667    0.0000000000000000    I4669
    0.8739586033250859    0.6666666666666667    0.3333333333333334    I4670
    0.8739586033250859    0.6666666666666667    0.6666666666666667    I4671
    0.2072919366584193    0.0000000000000000    0.1666666666666667    I4672
    0.2072919366584193    0.0000000000000000    0.5000000000000000    I4673
    0.2072919366584193    0.0000000000000000    0.8333333333333334    I4674
    0.2072919366584193    0.3333333333333334    0.1666666666666667    I4675
    0.2072919366584193    0.3333333333333334    0.5000000000000000    I4676
    0.2072919366584193    0.3333333333333334    0.8333333333333334    I4677
    0.2072919366584193    0.6666666666666667    0.1666666666666667    I4678
    0.2072919366584193    0.6666666666666667    0.5000000000000000    I4679
    0.2072919366584193    0.6666666666666667    0.8333333333333334    I4680
    0.5406252699917526    0.0000000000000000    0.1666666666666667    I4681
    0.5406252699917526    0.0000000000000000    0.5000000000000000    I4682
    0.5406252699917526    0.0000000000000000    0.8333333333333334    I4683
    0.5406252699917526    0.3333333333333334    0.1666666666666667    I4684
    0.5406252699917526    0.3333333333333334    0.5000000000000000    I4685
    0.5406252699917526    0.3333333333333334    0.8333333333333334    I4686
    0.5406252699917526    0.6666666666666667    0.1666666666666667    I4687
    0.5406252699917526    0.6666666666666667    0.5000000000000000    I4688
    0.5406252699917526    0.6666666666666667    0.8333333333333334    I4689
    0.8739586033250859    0.0000000000000000    0.1666666666666667    I4690
    0.8739586033250859    0.0000000000000000    0.5000000000000000    I4691
    0.8739586033250859    0.0000000000000000    0.8333333333333334    I4692
    0.8739586033250859    0.3333333333333334    0.1666666666666667    I4693
    0.8739586033250859    0.3333333333333334    0.5000000000000000    I4694
    0.8739586033250859    0.3333333333333334    0.8333333333333334    I4695
    0.8739586033250859    0.6666666666666667    0.1666666666666667    I4696
    0.8739586033250859    0.6666666666666667    0.5000000000000000    I4697
    0.8739586033250859    0.6666666666666667    0.8333333333333334    I4698
    0.2072919366584193    0.1666666666666667    0.0000000000000000    I4699
    0.2072919366584193    0.1666666666666667    0.3333333333333334    I4700
    0.2072919366584193    0.1666666666666667    0.6666666666666667    I4701
    0.2072919366584193    0.5000000000000000    0.0000000000000000    I4702
    0.2072919366584193    0.5000000000000000    0.3333333333333334    I4703
    0.2072919366584193    0.5000000000000000    0.6666666666666667    I4704
    0.2072919366584193    0.8333333333333334    0.0000000000000000    I4705
    0.2072919366584193    0.8333333333333334    0.3333333333333334    I4706
    0.2072919366584193    0.8333333333333334    0.6666666666666667    I4707
    0.5406252699917526    0.1666666666666667    0.0000000000000000    I4708
    0.5406252699917526    0.1666666666666667    0.3333333333333334    I4709
    0.5406252699917526    0.1666666666666667    0.6666666666666667    I4710
    0.5406252699917526    0.5000000000000000    0.0000000000000000    I4711
    0.5406252699917526    0.5000000000000000    0.3333333333333334    I4712
    0.5406252699917526    0.5000000000000000    0.6666666666666667    I4713
    0.5406252699917526    0.8333333333333334    0.0000000000000000    I4714
    0.5406252699917526    0.8333333333333334    0.3333333333333334    I4715
    0.5406252699917526    0.8333333333333334    0.6666666666666667    I4716
    0.8739586033250859    0.1666666666666667    0.0000000000000000    I4717
    0.8739586033250859    0.1666666666666667    0.3333333333333334    I4718
    0.8739586033250859    0.1666666666666667    0.6666666666666667    I4719
    0.8739586033250859    0.5000000000000000    0.0000000000000000    I4720
    0.8739586033250859    0.5000000000000000    0.3333333333333334    I4721
    0.8739586033250859    0.5000000000000000    0.6666666666666667    I4722
    0.8739586033250859    0.8333333333333334    0.0000000000000000    I4723
    0.8739586033250859    0.8333333333333334    0.3333333333333334    I4724
    0.8739586033250859    0.8333333333333334    0.6666666666666667    I4725
    0.2072919366584193    0.1666666666666667    0.1666666666666667    I4726
    0.2072919366584193    0.1666666666666667    0.5000000000000000    I4727
    0.2072919366584193    0.1666666666666667    0.8333333333333334    I4728
    0.2072919366584193    0.5000000000000000    0.1666666666666667    I4729
    0.2072919366584193    0.5000000000000000    0.5000000000000000    I4730
    0.2072919366584193    0.5000000000000000    0.8333333333333334    I4731
    0.2072919366584193    0.8333333333333334    0.1666666666666667    I4732
    0.2072919366584193    0.8333333333333334    0.5000000000000000    I4733
    0.2072919366584193    0.8333333333333334    0.8333333333333334    I4734
    0.5406252699917526    0.1666666666666667    0.1666666666666667    I4735
    0.5406252699917526    0.1666666666666667    0.5000000000000000    I4736
    0.5406252699917526    0.1666666666666667    0.8333333333333334    I4737
    0.5406252699917526    0.5000000000000000    0.1666666666666667    I4738
    0.5406252699917526    0.5000000000000000    0.5000000000000000    I4739
    0.5406252699917526    0.5000000000000000    0.8333333333333334    I4740
    0.5406252699917526    0.8333333333333334    0.1666666666666667    I4741
    0.5406252699917526    0.8333333333333334    0.5000000000000000    I4742
    0.5406252699917526    0.8333333333333334    0.8333333333333334    I4743
    0.8739586033250859    0.1666666666666667    0.1666666666666667    I4744
    0.8739586033250859    0.1666666666666667    0.5000000000000000    I4745
    0.8739586033250859    0.1666666666666667    0.8333333333333334    I4746
    0.8739586033250859    0.5000000000000000    0.1666666666666667    I4747
    0.8739586033250859    0.5000000000000000    0.5000000000000000    I4748
    0.8739586033250859    0.5000000000000000    0.8333333333333334    I4749
    0.8739586033250859    0.8333333333333334    0.1666666666666667    I4750
    0.8739586033250859    0.8333333333333334    0.5000000000000000    I4751
    0.8739586033250859    0.8333333333333334    0.8333333333333334    I4752
    0.0833333333333334    0.0000000000000000    0.0427080633415808    I4753
    0.0833333333333334    0.0000000000000000    0.3760413966749141    I4754
    0.0833333333333334    0.0000000000000000    0.7093747300082474    I4755
    0.0833333333333334    0.3333333333333334    0.0427080633415808    I4756
    0.0833333333333334    0.3333333333333334    0.3760413966749141    I4757
    0.0833333333333334    0.3333333333333334    0.7093747300082474    I4758
    0.0833333333333334    0.6666666666666667    0.0427080633415808    I4759
    0.0833333333333334    0.6666666666666667    0.3760413966749141    I4760
    0.0833333333333334    0.6666666666666667    0.7093747300082474    I4761
    0.4166666666666667    0.0000000000000000    0.0427080633415808    I4762
    0.4166666666666667    0.0000000000000000    0.3760413966749141    I4763
    0.4166666666666667    0.0000000000000000    0.7093747300082474    I4764
    0.4166666666666667    0.3333333333333334    0.0427080633415808    I4765
    0.4166666666666667    0.3333333333333334    0.3760413966749141    I4766
    0.4166666666666667    0.3333333333333334    0.7093747300082474    I4767
    0.4166666666666667    0.6666666666666667    0.0427080633415808    I4768
    0.4166666666666667    0.6666666666666667    0.3760413966749141    I4769
    0.4166666666666667    0.6666666666666667    0.7093747300082474    I4770
    0.7500000000000000    0.0000000000000000    0.0427080633415808    I4771
    0.7500000000000000    0.0000000000000000    0.3760413966749141    I4772
    0.7500000000000000    0.0000000000000000    0.7093747300082474    I4773
    0.7500000000000000    0.3333333333333334    0.0427080633415808    I4774
    0.7500000000000000    0.3333333333333334    0.3760413966749141    I4775
    0.7500000000000000    0.3333333333333334    0.7093747300082474    I4776
    0.7500000000000000    0.6666666666666667    0.0427080633415808    I4777
    0.7500000000000000    0.6666666666666667    0.3760413966749141    I4778
    0.7500000000000000    0.6666666666666667    0.7093747300082474    I4779
    0.0833333333333334    0.0000000000000000    0.2093747300082475    I4780
    0.0833333333333334    0.0000000000000000    0.5427080633415808    I4781
    0.0833333333333334    0.0000000000000000    0.8760413966749141    I4782
    0.0833333333333334    0.3333333333333334    0.2093747300082475    I4783
    0.0833333333333334    0.3333333333333334    0.5427080633415808    I4784
    0.0833333333333334    0.3333333333333334    0.8760413966749141    I4785
    0.0833333333333334    0.6666666666666667    0.2093747300082475    I4786
    0.0833333333333334    0.6666666666666667    0.5427080633415808    I4787
    0.0833333333333334    0.6666666666666667    0.8760413966749141    I4788
    0.4166666666666667    0.0000000000000000    0.2093747300082475    I4789
    0.4166666666666667    0.0000000000000000    0.5427080633415808    I4790
    0.4166666666666667    0.0000000000000000    0.8760413966749141    I4791
    0.4166666666666667    0.3333333333333334    0.2093747300082475    I4792
    0.4166666666666667    0.3333333333333334    0.5427080633415808    I4793
    0.4166666666666667    0.3333333333333334    0.8760413966749141    I4794
    0.4166666666666667    0.6666666666666667    0.2093747300082475    I4795
    0.4166666666666667    0.6666666666666667    0.5427080633415808    I4796
    0.4166666666666667    0.6666666666666667    0.8760413966749141    I4797
    0.7500000000000000    0.0000000000000000    0.2093747300082475    I4798
    0.7500000000000000    0.0000000000000000    0.5427080633415808    I4799
    0.7500000000000000    0.0000000000000000    0.8760413966749141    I4800
    0.7500000000000000    0.3333333333333334    0.2093747300082475    I4801
    0.7500000000000000    0.3333333333333334    0.5427080633415808    I4802
    0.7500000000000000    0.3333333333333334    0.8760413966749141    I4803
    0.7500000000000000    0.6666666666666667    0.2093747300082475    I4804
    0.7500000000000000    0.6666666666666667    0.5427080633415808    I4805
    0.7500000000000000    0.6666666666666667    0.8760413966749141    I4806
    0.0833333333333334    0.1666666666666667    0.0427080633415808    I4807
    0.0833333333333334    0.1666666666666667    0.3760413966749141    I4808
    0.0833333333333334    0.1666666666666667    0.7093747300082474    I4809
    0.0833333333333334    0.5000000000000000    0.0427080633415808    I4810
    0.0833333333333334    0.5000000000000000    0.3760413966749141    I4811
    0.0833333333333334    0.5000000000000000    0.7093747300082474    I4812
    0.0833333333333334    0.8333333333333334    0.0427080633415808    I4813
    0.0833333333333334    0.8333333333333334    0.3760413966749141    I4814
    0.0833333333333334    0.8333333333333334    0.7093747300082474    I4815
    0.4166666666666667    0.1666666666666667    0.0427080633415808    I4816
    0.4166666666666667    0.1666666666666667    0.3760413966749141    I4817
    0.4166666666666667    0.1666666666666667    0.7093747300082474    I4818
    0.4166666666666667    0.5000000000000000    0.0427080633415808    I4819
    0.4166666666666667    0.5000000000000000    0.3760413966749141    I4820
    0.4166666666666667    0.5000000000000000    0.7093747300082474    I4821
    0.4166666666666667    0.8333333333333334    0.0427080633415808    I4822
    0.4166666666666667    0.8333333333333334    0.3760413966749141    I4823
    0.4166666666666667    0.8333333333333334    0.7093747300082474    I4824
    0.7500000000000000    0.1666666666666667    0.0427080633415808    I4825
    0.7500000000000000    0.1666666666666667    0.3760413966749141    I4826
    0.7500000000000000    0.1666666666666667    0.7093747300082474    I4827
    0.7500000000000000    0.5000000000000000    0.0427080633415808    I4828
    0.7500000000000000    0.5000000000000000    0.3760413966749141    I4829
    0.7500000000000000    0.5000000000000000    0.7093747300082474    I4830
    0.7500000000000000    0.8333333333333334    0.0427080633415808    I4831
    0.7500000000000000    0.8333333333333334    0.3760413966749141    I4832
    0.7500000000000000    0.8333333333333334    0.7093747300082474    I4833
    0.0833333333333334    0.1666666666666667    0.2093747300082475    I4834
    0.0833333333333334    0.1666666666666667    0.5427080633415808    I4835
    0.0833333333333334    0.1666666666666667    0.8760413966749141    I4836
    0.0833333333333334    0.5000000000000000    0.2093747300082475    I4837
    0.0833333333333334    0.5000000000000000    0.5427080633415808    I4838
    0.0833333333333334    0.5000000000000000    0.8760413966749141    I4839
    0.0833333333333334    0.8333333333333334    0.2093747300082475    I4840
    0.0833333333333334    0.8333333333333334    0.5427080633415808    I4841
    0.0833333333333334    0.8333333333333334    0.8760413966749141    I4842
    0.4166666666666667    0.1666666666666667    0.2093747300082475    I4843
    0.4166666666666667    0.1666666666666667    0.5427080633415808    I4844
    0.4166666666666667    0.1666666666666667    0.8760413966749141    I4845
    0.4166666666666667    0.5000000000000000    0.2093747300082475    I4846
    0.4166666666666667    0.5000000000000000    0.5427080633415808    I4847
    0.4166666666666667    0.5000000000000000    0.8760413966749141    I4848
    0.4166666666666667    0.8333333333333334    0.2093747300082475    I4849
    0.4166666666666667    0.8333333333333334    0.5427080633415808    I4850
    0.4166666666666667    0.8333333333333334    0.8760413966749141    I4851
    0.7500000000000000    0.1666666666666667    0.2093747300082475    I4852
    0.7500000000000000    0.1666666666666667    0.5427080633415808    I4853
    0.7500000000000000    0.1666666666666667    0.8760413966749141    I4854
    0.7500000000000000    0.5000000000000000    0.2093747300082475    I4855
    0.7500000000000000    0.5000000000000000    0.5427080633415808    I4856
    0.7500000000000000    0.5000000000000000    0.8760413966749141    I4857
    0.7500000000000000    0.8333333333333334    0.2093747300082475    I4858
    0.7500000000000000    0.8333333333333334    0.5427080633415808    I4859
    0.7500000000000000    0.8333333333333334    0.8760413966749141    I4860
    0.2500000000000000    0.0000000000000000    0.0427080633415808    I4861
    0.2500000000000000    0.0000000000000000    0.3760413966749141    I4862
    0.2500000000000000    0.0000000000000000    0.7093747300082474    I4863
    0.2500000000000000    0.3333333333333334    0.0427080633415808    I4864
    0.2500000000000000    0.3333333333333334    0.3760413966749141    I4865
    0.2500000000000000    0.3333333333333334    0.7093747300082474    I4866
    0.2500000000000000    0.6666666666666667    0.0427080633415808    I4867
    0.2500000000000000    0.6666666666666667    0.3760413966749141    I4868
    0.2500000000000000    0.6666666666666667    0.7093747300082474    I4869
    0.5833333333333334    0.0000000000000000    0.0427080633415808    I4870
    0.5833333333333334    0.0000000000000000    0.3760413966749141    I4871
    0.5833333333333334    0.0000000000000000    0.7093747300082474    I4872
    0.5833333333333334    0.3333333333333334    0.0427080633415808    I4873
    0.5833333333333334    0.3333333333333334    0.3760413966749141    I4874
    0.5833333333333334    0.3333333333333334    0.7093747300082474    I4875
    0.5833333333333334    0.6666666666666667    0.0427080633415808    I4876
    0.5833333333333334    0.6666666666666667    0.3760413966749141    I4877
    0.5833333333333334    0.6666666666666667    0.7093747300082474    I4878
    0.9166666666666666    0.0000000000000000    0.0427080633415808    I4879
    0.9166666666666666    0.0000000000000000    0.3760413966749141    I4880
    0.9166666666666666    0.0000000000000000    0.7093747300082474    I4881
    0.9166666666666666    0.3333333333333334    0.0427080633415808    I4882
    0.9166666666666666    0.3333333333333334    0.3760413966749141    I4883
    0.9166666666666666    0.3333333333333334    0.7093747300082474    I4884
    0.9166666666666666    0.6666666666666667    0.0427080633415808    I4885
    0.9166666666666666    0.6666666666666667    0.3760413966749141    I4886
    0.9166666666666666    0.6666666666666667    0.7093747300082474    I4887
    0.2500000000000000    0.0000000000000000    0.2093747300082475    I4888
    0.2500000000000000    0.0000000000000000    0.5427080633415808    I4889
    0.2500000000000000    0.0000000000000000    0.8760413966749141    I4890
    0.2500000000000000    0.3333333333333334    0.2093747300082475    I4891
    0.2500000000000000    0.3333333333333334    0.5427080633415808    I4892
    0.2500000000000000    0.3333333333333334    0.8760413966749141    I4893
    0.2500000000000000    0.6666666666666667    0.2093747300082475    I4894
    0.2500000000000000    0.6666666666666667    0.5427080633415808    I4895
    0.2500000000000000    0.6666666666666667    0.8760413966749141    I4896
    0.5833333333333334    0.0000000000000000    0.2093747300082475    I4897
    0.5833333333333334    0.0000000000000000    0.5427080633415808    I4898
    0.5833333333333334    0.0000000000000000    0.8760413966749141    I4899
    0.5833333333333334    0.3333333333333334    0.2093747300082475    I4900
    0.5833333333333334    0.3333333333333334    0.5427080633415808    I4901
    0.5833333333333334    0.3333333333333334    0.8760413966749141    I4902
    0.5833333333333334    0.6666666666666667    0.2093747300082475    I4903
    0.5833333333333334    0.6666666666666667    0.5427080633415808    I4904
    0.5833333333333334    0.6666666666666667    0.8760413966749141    I4905
    0.9166666666666666    0.0000000000000000    0.2093747300082475    I4906
    0.9166666666666666    0.0000000000000000    0.5427080633415808    I4907
    0.9166666666666666    0.0000000000000000    0.8760413966749141    I4908
    0.9166666666666666    0.3333333333333334    0.2093747300082475    I4909
    0.9166666666666666    0.3333333333333334    0.5427080633415808    I4910
    0.9166666666666666    0.3333333333333334    0.8760413966749141    I4911
    0.9166666666666666    0.6666666666666667    0.2093747300082475    I4912
    0.9166666666666666    0.6666666666666667    0.5427080633415808    I4913
    0.9166666666666666    0.6666666666666667    0.8760413966749141    I4914
    0.2500000000000000    0.1666666666666667    0.0427080633415808    I4915
    0.2500000000000000    0.1666666666666667    0.3760413966749141    I4916
    0.2500000000000000    0.1666666666666667    0.7093747300082474    I4917
    0.2500000000000000    0.5000000000000000    0.0427080633415808    I4918
    0.2500000000000000    0.5000000000000000    0.3760413966749141    I4919
    0.2500000000000000    0.5000000000000000    0.7093747300082474    I4920
    0.2500000000000000    0.8333333333333334    0.0427080633415808    I4921
    0.2500000000000000    0.8333333333333334    0.3760413966749141    I4922
    0.2500000000000000    0.8333333333333334    0.7093747300082474    I4923
    0.5833333333333334    0.1666666666666667    0.0427080633415808    I4924
    0.5833333333333334    0.1666666666666667    0.3760413966749141    I4925
    0.5833333333333334    0.1666666666666667    0.7093747300082474    I4926
    0.5833333333333334    0.5000000000000000    0.0427080633415808    I4927
    0.5833333333333334    0.5000000000000000    0.3760413966749141    I4928
    0.5833333333333334    0.5000000000000000    0.7093747300082474    I4929
    0.5833333333333334    0.8333333333333334    0.0427080633415808    I4930
    0.5833333333333334    0.8333333333333334    0.3760413966749141    I4931
    0.5833333333333334    0.8333333333333334    0.7093747300082474    I4932
    0.9166666666666666    0.1666666666666667    0.0427080633415808    I4933
    0.9166666666666666    0.1666666666666667    0.3760413966749141    I4934
    0.9166666666666666    0.1666666666666667    0.7093747300082474    I4935
    0.9166666666666666    0.5000000000000000    0.0427080633415808    I4936
    0.9166666666666666    0.5000000000000000    0.3760413966749141    I4937
    0.9166666666666666    0.5000000000000000    0.7093747300082474    I4938
    0.9166666666666666    0.8333333333333334    0.0427080633415808    I4939
    0.9166666666666666    0.8333333333333334    0.3760413966749141    I4940
    0.9166666666666666    0.8333333333333334    0.7093747300082474    I4941
    0.2500000000000000    0.1666666666666667    0.2093747300082475    I4942
    0.2500000000000000    0.1666666666666667    0.5427080633415808    I4943
    0.2500000000000000    0.1666666666666667    0.8760413966749141    I4944
    0.2500000000000000    0.5000000000000000    0.2093747300082475    I4945
    0.2500000000000000    0.5000000000000000    0.5427080633415808    I4946
    0.2500000000000000    0.5000000000000000    0.8760413966749141    I4947
    0.2500000000000000    0.8333333333333334    0.2093747300082475    I4948
    0.2500000000000000    0.8333333333333334    0.5427080633415808    I4949
    0.2500000000000000    0.8333333333333334    0.8760413966749141    I4950
    0.5833333333333334    0.1666666666666667    0.2093747300082475    I4951
    0.5833333333333334    0.1666666666666667    0.5427080633415808    I4952
    0.5833333333333334    0.1666666666666667    0.8760413966749141    I4953
    0.5833333333333334    0.5000000000000000    0.2093747300082475    I4954
    0.5833333333333334    0.5000000000000000    0.5427080633415808    I4955
    0.5833333333333334    0.5000000000000000    0.8760413966749141    I4956
    0.5833333333333334    0.8333333333333334    0.2093747300082475    I4957
    0.5833333333333334    0.8333333333333334    0.5427080633415808    I4958
    0.5833333333333334    0.8333333333333334    0.8760413966749141    I4959
    0.9166666666666666    0.1666666666666667    0.2093747300082475    I4960
    0.9166666666666666    0.1666666666666667    0.5427080633415808    I4961
    0.9166666666666666    0.1666666666666667    0.8760413966749141    I4962
    0.9166666666666666    0.5000000000000000    0.2093747300082475    I4963
    0.9166666666666666    0.5000000000000000    0.5427080633415808    I4964
    0.9166666666666666    0.5000000000000000    0.8760413966749141    I4965
    0.9166666666666666    0.8333333333333334    0.2093747300082475    I4966
    0.9166666666666666    0.8333333333333334    0.5427080633415808    I4967
    0.9166666666666666    0.8333333333333334    0.8760413966749141    I4968
    0.0833333333333334    0.0000000000000000    0.1239586033250859    I4969
    0.0833333333333334    0.0000000000000000    0.4572919366584193    I4970
    0.0833333333333334    0.0000000000000000    0.7906252699917526    I4971
    0.0833333333333334    0.3333333333333334    0.1239586033250859    I4972
    0.0833333333333334    0.3333333333333334    0.4572919366584193    I4973
    0.0833333333333334    0.3333333333333334    0.7906252699917526    I4974
    0.0833333333333334    0.6666666666666667    0.1239586033250859    I4975
    0.0833333333333334    0.6666666666666667    0.4572919366584193    I4976
    0.0833333333333334    0.6666666666666667    0.7906252699917526    I4977
    0.4166666666666667    0.0000000000000000    0.1239586033250859    I4978
    0.4166666666666667    0.0000000000000000    0.4572919366584193    I4979
    0.4166666666666667    0.0000000000000000    0.7906252699917526    I4980
    0.4166666666666667    0.3333333333333334    0.1239586033250859    I4981
    0.4166666666666667    0.3333333333333334    0.4572919366584193    I4982
    0.4166666666666667    0.3333333333333334    0.7906252699917526    I4983
    0.4166666666666667    0.6666666666666667    0.1239586033250859    I4984
    0.4166666666666667    0.6666666666666667    0.4572919366584193    I4985
    0.4166666666666667    0.6666666666666667    0.7906252699917526    I4986
    0.7500000000000000    0.0000000000000000    0.1239586033250859    I4987
    0.7500000000000000    0.0000000000000000    0.4572919366584193    I4988
    0.7500000000000000    0.0000000000000000    0.7906252699917526    I4989
    0.7500000000000000    0.3333333333333334    0.1239586033250859    I4990
    0.7500000000000000    0.3333333333333334    0.4572919366584193    I4991
    0.7500000000000000    0.3333333333333334    0.7906252699917526    I4992
    0.7500000000000000    0.6666666666666667    0.1239586033250859    I4993
    0.7500000000000000    0.6666666666666667    0.4572919366584193    I4994
    0.7500000000000000    0.6666666666666667    0.7906252699917526    I4995
    0.0833333333333334    0.0000000000000000    0.2906252699917526    I4996
    0.0833333333333334    0.0000000000000000    0.6239586033250859    I4997
    0.0833333333333334    0.0000000000000000    0.9572919366584193    I4998
    0.0833333333333334    0.3333333333333334    0.2906252699917526    I4999
    0.0833333333333334    0.3333333333333334    0.6239586033250859    I5000
    0.0833333333333334    0.3333333333333334    0.9572919366584193    I5001
    0.0833333333333334    0.6666666666666667    0.2906252699917526    I5002
    0.0833333333333334    0.6666666666666667    0.6239586033250859    I5003
    0.0833333333333334    0.6666666666666667    0.9572919366584193    I5004
    0.4166666666666667    0.0000000000000000    0.2906252699917526    I5005
    0.4166666666666667    0.0000000000000000    0.6239586033250859    I5006
    0.4166666666666667    0.0000000000000000    0.9572919366584193    I5007
    0.4166666666666667    0.3333333333333334    0.2906252699917526    I5008
    0.4166666666666667    0.3333333333333334    0.6239586033250859    I5009
    0.4166666666666667    0.3333333333333334    0.9572919366584193    I5010
    0.4166666666666667    0.6666666666666667    0.2906252699917526    I5011
    0.4166666666666667    0.6666666666666667    0.6239586033250859    I5012
    0.4166666666666667    0.6666666666666667    0.9572919366584193    I5013
    0.7500000000000000    0.0000000000000000    0.2906252699917526    I5014
    0.7500000000000000    0.0000000000000000    0.6239586033250859    I5015
    0.7500000000000000    0.0000000000000000    0.9572919366584193    I5016
    0.7500000000000000    0.3333333333333334    0.2906252699917526    I5017
    0.7500000000000000    0.3333333333333334    0.6239586033250859    I5018
    0.7500000000000000    0.3333333333333334    0.9572919366584193    I5019
    0.7500000000000000    0.6666666666666667    0.2906252699917526    I5020
    0.7500000000000000    0.6666666666666667    0.6239586033250859    I5021
    0.7500000000000000    0.6666666666666667    0.9572919366584193    I5022
    0.0833333333333334    0.1666666666666667    0.1239586033250859    I5023
    0.0833333333333334    0.1666666666666667    0.4572919366584193    I5024
    0.0833333333333334    0.1666666666666667    0.7906252699917526    I5025
    0.0833333333333334    0.5000000000000000    0.1239586033250859    I5026
    0.0833333333333334    0.5000000000000000    0.4572919366584193    I5027
    0.0833333333333334    0.5000000000000000    0.7906252699917526    I5028
    0.0833333333333334    0.8333333333333334    0.1239586033250859    I5029
    0.0833333333333334    0.8333333333333334    0.4572919366584193    I5030
    0.0833333333333334    0.8333333333333334    0.7906252699917526    I5031
    0.4166666666666667    0.1666666666666667    0.1239586033250859    I5032
    0.4166666666666667    0.1666666666666667    0.4572919366584193    I5033
    0.4166666666666667    0.1666666666666667    0.7906252699917526    I5034
    0.4166666666666667    0.5000000000000000    0.1239586033250859    I5035
    0.4166666666666667    0.5000000000000000    0.4572919366584193    I5036
    0.4166666666666667    0.5000000000000000    0.7906252699917526    I5037
    0.4166666666666667    0.8333333333333334    0.1239586033250859    I5038
    0.4166666666666667    0.8333333333333334    0.4572919366584193    I5039
    0.4166666666666667    0.8333333333333334    0.7906252699917526    I5040
    0.7500000000000000    0.1666666666666667    0.1239586033250859    I5041
    0.7500000000000000    0.1666666666666667    0.4572919366584193    I5042
    0.7500000000000000    0.1666666666666667    0.7906252699917526    I5043
    0.7500000000000000    0.5000000000000000    0.1239586033250859    I5044
    0.7500000000000000    0.5000000000000000    0.4572919366584193    I5045
    0.7500000000000000    0.5000000000000000    0.7906252699917526    I5046
    0.7500000000000000    0.8333333333333334    0.1239586033250859    I5047
    0.7500000000000000    0.8333333333333334    0.4572919366584193    I5048
    0.7500000000000000    0.8333333333333334    0.7906252699917526    I5049
    0.0833333333333334    0.1666666666666667    0.2906252699917526    I5050
    0.0833333333333334    0.1666666666666667    0.6239586033250859    I5051
    0.0833333333333334    0.1666666666666667    0.9572919366584193    I5052
    0.0833333333333334    0.5000000000000000    0.2906252699917526    I5053
    0.0833333333333334    0.5000000000000000    0.6239586033250859    I5054
    0.0833333333333334    0.5000000000000000    0.9572919366584193    I5055
    0.0833333333333334    0.8333333333333334    0.2906252699917526    I5056
    0.0833333333333334    0.8333333333333334    0.6239586033250859    I5057
    0.0833333333333334    0.8333333333333334    0.9572919366584193    I5058
    0.4166666666666667    0.1666666666666667    0.2906252699917526    I5059
    0.4166666666666667    0.1666666666666667    0.6239586033250859    I5060
    0.4166666666666667    0.1666666666666667    0.9572919366584193    I5061
    0.4166666666666667    0.5000000000000000    0.2906252699917526    I5062
    0.4166666666666667    0.5000000000000000    0.6239586033250859    I5063
    0.4166666666666667    0.5000000000000000    0.9572919366584193    I5064
    0.4166666666666667    0.8333333333333334    0.2906252699917526    I5065
    0.4166666666666667    0.8333333333333334    0.6239586033250859    I5066
    0.4166666666666667    0.8333333333333334    0.9572919366584193    I5067
    0.7500000000000000    0.1666666666666667    0.2906252699917526    I5068
    0.7500000000000000    0.1666666666666667    0.6239586033250859    I5069
    0.7500000000000000    0.1666666666666667    0.9572919366584193    I5070
    0.7500000000000000    0.5000000000000000    0.2906252699917526    I5071
    0.7500000000000000    0.5000000000000000    0.6239586033250859    I5072
    0.7500000000000000    0.5000000000000000    0.9572919366584193    I5073
    0.7500000000000000    0.8333333333333334    0.2906252699917526    I5074
    0.7500000000000000    0.8333333333333334    0.6239586033250859    I5075
    0.7500000000000000    0.8333333333333334    0.9572919366584193    I5076
    0.2500000000000000    0.0000000000000000    0.1239586033250859    I5077
    0.2500000000000000    0.0000000000000000    0.4572919366584193    I5078
    0.2500000000000000    0.0000000000000000    0.7906252699917526    I5079
    0.2500000000000000    0.3333333333333334    0.1239586033250859    I5080
    0.2500000000000000    0.3333333333333334    0.4572919366584193    I5081
    0.2500000000000000    0.3333333333333334    0.7906252699917526    I5082
    0.2500000000000000    0.6666666666666667    0.1239586033250859    I5083
    0.2500000000000000    0.6666666666666667    0.4572919366584193    I5084
    0.2500000000000000    0.6666666666666667    0.7906252699917526    I5085
    0.5833333333333334    0.0000000000000000    0.1239586033250859    I5086
    0.5833333333333334    0.0000000000000000    0.4572919366584193    I5087
    0.5833333333333334    0.0000000000000000    0.7906252699917526    I5088
    0.5833333333333334    0.3333333333333334    0.1239586033250859    I5089
    0.5833333333333334    0.3333333333333334    0.4572919366584193    I5090
    0.5833333333333334    0.3333333333333334    0.7906252699917526    I5091
    0.5833333333333334    0.6666666666666667    0.1239586033250859    I5092
    0.5833333333333334    0.6666666666666667    0.4572919366584193    I5093
    0.5833333333333334    0.6666666666666667    0.7906252699917526    I5094
    0.9166666666666666    0.0000000000000000    0.1239586033250859    I5095
    0.9166666666666666    0.0000000000000000    0.4572919366584193    I5096
    0.9166666666666666    0.0000000000000000    0.7906252699917526    I5097
    0.9166666666666666    0.3333333333333334    0.1239586033250859    I5098
    0.9166666666666666    0.3333333333333334    0.4572919366584193    I5099
    0.9166666666666666    0.3333333333333334    0.7906252699917526    I5100
    0.9166666666666666    0.6666666666666667    0.1239586033250859    I5101
    0.9166666666666666    0.6666666666666667    0.4572919366584193    I5102
    0.9166666666666666    0.6666666666666667    0.7906252699917526    I5103
    0.2500000000000000    0.0000000000000000    0.2906252699917526    I5104
    0.2500000000000000    0.0000000000000000    0.6239586033250859    I5105
    0.2500000000000000    0.0000000000000000    0.9572919366584193    I5106
    0.2500000000000000    0.3333333333333334    0.2906252699917526    I5107
    0.2500000000000000    0.3333333333333334    0.6239586033250859    I5108
    0.2500000000000000    0.3333333333333334    0.9572919366584193    I5109
    0.2500000000000000    0.6666666666666667    0.2906252699917526    I5110
    0.2500000000000000    0.6666666666666667    0.6239586033250859    I5111
    0.2500000000000000    0.6666666666666667    0.9572919366584193    I5112
    0.5833333333333334    0.0000000000000000    0.2906252699917526    I5113
    0.5833333333333334    0.0000000000000000    0.6239586033250859    I5114
    0.5833333333333334    0.0000000000000000    0.9572919366584193    I5115
    0.5833333333333334    0.3333333333333334    0.2906252699917526    I5116
    0.5833333333333334    0.3333333333333334    0.6239586033250859    I5117
    0.5833333333333334    0.3333333333333334    0.9572919366584193    I5118
    0.5833333333333334    0.6666666666666667    0.2906252699917526    I5119
    0.5833333333333334    0.6666666666666667    0.6239586033250859    I5120
    0.5833333333333334    0.6666666666666667    0.9572919366584193    I5121
    0.9166666666666666    0.0000000000000000    0.2906252699917526    I5122
    0.9166666666666666    0.0000000000000000    0.6239586033250859    I5123
    0.9166666666666666    0.0000000000000000    0.9572919366584193    I5124
    0.9166666666666666    0.3333333333333334    0.2906252699917526    I5125
    0.9166666666666666    0.3333333333333334    0.6239586033250859    I5126
    0.9166666666666666    0.3333333333333334    0.9572919366584193    I5127
    0.9166666666666666    0.6666666666666667    0.2906252699917526    I5128
    0.9166666666666666    0.6666666666666667    0.6239586033250859    I5129
    0.9166666666666666    0.6666666666666667    0.9572919366584193    I5130
    0.2500000000000000    0.1666666666666667    0.1239586033250859    I5131
    0.2500000000000000    0.1666666666666667    0.4572919366584193    I5132
    0.2500000000000000    0.1666666666666667    0.7906252699917526    I5133
    0.2500000000000000    0.5000000000000000    0.1239586033250859    I5134
    0.2500000000000000    0.5000000000000000    0.4572919366584193    I5135
    0.2500000000000000    0.5000000000000000    0.7906252699917526    I5136
    0.2500000000000000    0.8333333333333334    0.1239586033250859    I5137
    0.2500000000000000    0.8333333333333334    0.4572919366584193    I5138
    0.2500000000000000    0.8333333333333334    0.7906252699917526    I5139
    0.5833333333333334    0.1666666666666667    0.1239586033250859    I5140
    0.5833333333333334    0.1666666666666667    0.4572919366584193    I5141
    0.5833333333333334    0.1666666666666667    0.7906252699917526    I5142
    0.5833333333333334    0.5000000000000000    0.1239586033250859    I5143
    0.5833333333333334    0.5000000000000000    0.4572919366584193    I5144
    0.5833333333333334    0.5000000000000000    0.7906252699917526    I5145
    0.5833333333333334    0.8333333333333334    0.1239586033250859    I5146
    0.5833333333333334    0.8333333333333334    0.4572919366584193    I5147
    0.5833333333333334    0.8333333333333334    0.7906252699917526    I5148
    0.9166666666666666    0.1666666666666667    0.1239586033250859    I5149
    0.9166666666666666    0.1666666666666667    0.4572919366584193    I5150
    0.9166666666666666    0.1666666666666667    0.7906252699917526    I5151
    0.9166666666666666    0.5000000000000000    0.1239586033250859    I5152
    0.9166666666666666    0.5000000000000000    0.4572919366584193    I5153
    0.9166666666666666    0.5000000000000000    0.7906252699917526    I5154
    0.9166666666666666    0.8333333333333334    0.1239586033250859    I5155
    0.9166666666666666    0.8333333333333334    0.4572919366584193    I5156
    0.9166666666666666    0.8333333333333334    0.7906252699917526    I5157
    0.2500000000000000    0.1666666666666667    0.2906252699917526    I5158
    0.2500000000000000    0.1666666666666667    0.6239586033250859    I5159
    0.2500000000000000    0.1666666666666667    0.9572919366584193    I5160
    0.2500000000000000    0.5000000000000000    0.2906252699917526    I5161
    0.2500000000000000    0.5000000000000000    0.6239586033250859    I5162
    0.2500000000000000    0.5000000000000000    0.9572919366584193    I5163
    0.2500000000000000    0.8333333333333334    0.2906252699917526    I5164
    0.2500000000000000    0.8333333333333334    0.6239586033250859    I5165
    0.2500000000000000    0.8333333333333334    0.9572919366584193    I5166
    0.5833333333333334    0.1666666666666667    0.2906252699917526    I5167
    0.5833333333333334    0.1666666666666667    0.6239586033250859    I5168
    0.5833333333333334    0.1666666666666667    0.9572919366584193    I5169
    0.5833333333333334    0.5000000000000000    0.2906252699917526    I5170
    0.5833333333333334    0.5000000000000000    0.6239586033250859    I5171
    0.5833333333333334    0.5000000000000000    0.9572919366584193    I5172
    0.5833333333333334    0.8333333333333334    0.2906252699917526    I5173
    0.5833333333333334    0.8333333333333334    0.6239586033250859    I5174
    0.5833333333333334    0.8333333333333334    0.9572919366584193    I5175
    0.9166666666666666    0.1666666666666667    0.2906252699917526    I5176
    0.9166666666666666    0.1666666666666667    0.6239586033250859    I5177
    0.9166666666666666    0.1666666666666667    0.9572919366584193    I5178
    0.9166666666666666    0.5000000000000000    0.2906252699917526    I5179
    0.9166666666666666    0.5000000000000000    0.6239586033250859    I5180
    0.9166666666666666    0.5000000000000000    0.9572919366584193    I5181
    0.9166666666666666    0.8333333333333334    0.2906252699917526    I5182
    0.9166666666666666    0.8333333333333334    0.6239586033250859    I5183
    0.9166666666666666    0.8333333333333334    0.9572919366584193    I5184
